Layer                                   
   1.00000000000000     
     2.5925900057573852   -1.4952752265876454    0.0518951647512091
     0.0013482762012733    2.9928857367913029   -0.0518951489622574
     0.4089676063014350   -0.7083524578609989   48.3473771564173447
   O    Mg   Al
     9    10     7
Selective dynamics
Direct
  0.5518345732719424  0.4481654267359376  0.3730899123685948   T   T   T
  0.5000234422777553  0.4999765577214983  0.5257594485711380   T   T   T
  0.4482108663973539  0.5517891335933524  0.6784310309405599   T   T   T
  0.2358146952671156  0.7641853047213594  0.3223298450943403   T   T   T
  0.8678657123369156  0.1321342876680514  0.4239911397007217   T   T   T
  0.1839401661783973  0.8160598338201888  0.4748638510797827   T   T   T
  0.8161082047664188  0.1838917952337446  0.5766513308615713   T   T   T
  0.1321814320233867  0.8678185679702398  0.6275265191210770   T   T   T
  0.7642300842384281  0.2357699157738146  0.7291936288289640   T   T   T
  0.5780278449840601  0.4219721550214749  0.2962598906174350   T   T   T
  0.5259052761052203  0.4740947238978774  0.4494085685124765   T   T   T
  0.4741416470358090  0.5258583529627484  0.6021109270311316   T   T   T
  0.4220164763140610  0.5779835236775831  0.7552641058314062   T   T   T
  0.8938382586607148  0.1061617413539724  0.3476214241371330   T   T   T
  0.2098511998406414  0.7901488001667197  0.3985151095767915   T   T   T
  0.8419837768330073  0.1580162231690462  0.5003011952532598   T   T   T
  0.1580622755017233  0.8419377244973388  0.5512205091469616   T   T   T
  0.7901954310474072  0.2098045689466954  0.6530035169943926   T   T   T
  0.1062094809508650  0.8937905190362884  0.7038931105713391   T   T   T
  0.9999030504046851  0.0000969495896022  0.0259107360901954   T   T   T
  0.9285711400619737  0.0714288599526779  0.2463138189435153   T   T   T
  0.6349032325521128  0.3650967674224782  0.1176375914548002   T   T   T
  0.3176376705749881  0.6823623294216014  0.0713538040846185   T   T   T
  0.0714714320586506  0.9285285679245024  0.8052117655871950   T   T   T
  0.6821687160716907  0.3178312839394722  0.9804677461417519   T   T   T
  0.3649039142447333  0.6350960857816776  0.9341844734587781   T   T   T
 
  0.00000000E+00  0.00000000E+00  0.00000000E+00
  0.00000000E+00  0.00000000E+00  0.00000000E+00
  0.00000000E+00  0.00000000E+00  0.00000000E+00
  0.00000000E+00  0.00000000E+00  0.00000000E+00
  0.00000000E+00  0.00000000E+00  0.00000000E+00
  0.00000000E+00  0.00000000E+00  0.00000000E+00
  0.00000000E+00  0.00000000E+00  0.00000000E+00
  0.00000000E+00  0.00000000E+00  0.00000000E+00
  0.00000000E+00  0.00000000E+00  0.00000000E+00
  0.00000000E+00  0.00000000E+00  0.00000000E+00
  0.00000000E+00  0.00000000E+00  0.00000000E+00
  0.00000000E+00  0.00000000E+00  0.00000000E+00
  0.00000000E+00  0.00000000E+00  0.00000000E+00
  0.00000000E+00  0.00000000E+00  0.00000000E+00
  0.00000000E+00  0.00000000E+00  0.00000000E+00
  0.00000000E+00  0.00000000E+00  0.00000000E+00
  0.00000000E+00  0.00000000E+00  0.00000000E+00
  0.00000000E+00  0.00000000E+00  0.00000000E+00
  0.00000000E+00  0.00000000E+00  0.00000000E+00
  0.00000000E+00  0.00000000E+00  0.00000000E+00
  0.00000000E+00  0.00000000E+00  0.00000000E+00
  0.00000000E+00  0.00000000E+00  0.00000000E+00
  0.00000000E+00  0.00000000E+00  0.00000000E+00
  0.00000000E+00  0.00000000E+00  0.00000000E+00
  0.00000000E+00  0.00000000E+00  0.00000000E+00
  0.00000000E+00  0.00000000E+00  0.00000000E+00
