Layer                                   
   1.00000000000000     
     2.5919820456764819   -1.4964810761798768    0.0000000000000000
     0.0000000000000001    2.9929621523597536    0.0000000000000000
     0.0000000000000000   -0.0000000000000001   42.6452014058744879
   O    Mg   Al
     9    10     7
Selective dynamics
Direct
  0.0000000000000000 -0.0000000000000000  0.3497764882897672   T   T   T
  0.3333330000000032  0.6666669999999968  0.4084410799628497   T   T   T
  0.0000000000000000 -0.0000000000000000  0.5258105807675978   T   T   T
  0.3333330000000032  0.6666669999999968  0.5844513072411656   T   T   T
  0.0000000000000000 -0.0000000000000000  0.7017847561197949   T   T   T
  0.3333330000000032  0.6666669999999968  0.7604708398397102   T   T   T
  0.6666669999999968  0.3333330000000032  0.2910843442948244   T   T   T
  0.6666669999999968  0.3333330000000032  0.4671607438158884   T   T   T
  0.6666669999999968  0.3333330000000032  0.6431446260136977   T   T   T
  0.0000000000000000 -0.0000000000000000  0.2609839155280400   T   T   T
  0.0000000000000000 -0.0000000000000000  0.4378029625641948   T   T   T
  0.0000000000000000 -0.0000000000000000  0.6137957254521939   T   T   T
  0.0000000000000000 -0.0000000000000000  0.7905545988442317   T   T   T
  0.6666669999999968  0.3333330000000032  0.3791294445956942   T   T   T
  0.6666669999999968  0.3333330000000032  0.5551248999601754   T   T   T
  0.6666669999999968  0.3333330000000032  0.7311082011370214   T   T   T
  0.3333330000000032  0.6666669999999968  0.3204433093539161   T   T   T
  0.3333330000000032  0.6666669999999968  0.4964917335882860   T   T   T
  0.3333330000000032  0.6666669999999968  0.6724576349017519   T   T   T
  0.0000000000000000 -0.0000000000000000  0.0257946238676396   T   T   T
  0.0000000000000000 -0.0000000000000000  0.1922387368147315   T   T   T
  0.6666669999999968  0.3333330000000032  0.1360439733885221   T   T   T
  0.3333330000000032  0.6666669999999968  0.0806604509178794   T   T   T
  0.0000000000000000 -0.0000000000000000  0.8593091454813196   T   T   T
  0.6666669999999968  0.3333330000000032  0.9709259665785247   T   T   T
  0.3333330000000032  0.6666669999999968  0.9155249106805979   T   T   T
 
  0.00000000E+00  0.00000000E+00  0.00000000E+00
  0.00000000E+00  0.00000000E+00  0.00000000E+00
  0.00000000E+00  0.00000000E+00  0.00000000E+00
  0.00000000E+00  0.00000000E+00  0.00000000E+00
  0.00000000E+00  0.00000000E+00  0.00000000E+00
  0.00000000E+00  0.00000000E+00  0.00000000E+00
  0.00000000E+00  0.00000000E+00  0.00000000E+00
  0.00000000E+00  0.00000000E+00  0.00000000E+00
  0.00000000E+00  0.00000000E+00  0.00000000E+00
  0.00000000E+00  0.00000000E+00  0.00000000E+00
  0.00000000E+00  0.00000000E+00  0.00000000E+00
  0.00000000E+00  0.00000000E+00  0.00000000E+00
  0.00000000E+00  0.00000000E+00  0.00000000E+00
  0.00000000E+00  0.00000000E+00  0.00000000E+00
  0.00000000E+00  0.00000000E+00  0.00000000E+00
  0.00000000E+00  0.00000000E+00  0.00000000E+00
  0.00000000E+00  0.00000000E+00  0.00000000E+00
  0.00000000E+00  0.00000000E+00  0.00000000E+00
  0.00000000E+00  0.00000000E+00  0.00000000E+00
  0.00000000E+00  0.00000000E+00  0.00000000E+00
  0.00000000E+00  0.00000000E+00  0.00000000E+00
  0.00000000E+00  0.00000000E+00  0.00000000E+00
  0.00000000E+00  0.00000000E+00  0.00000000E+00
  0.00000000E+00  0.00000000E+00  0.00000000E+00
  0.00000000E+00  0.00000000E+00  0.00000000E+00
  0.00000000E+00  0.00000000E+00  0.00000000E+00
