Layer                                   
   1.00000000000000     
     2.5753034101725314   -1.4868516770802194    0.0000000000000000
     0.0000000000000000    2.9737033541604387    0.0000000000000000
    -0.0000000000000009    0.0000000000000000   44.4845076940666928
   O    Mg   Al
    11    10     7
Selective dynamics
Direct
  0.3333330000000032  0.6666669999999968  0.2388700695969059   T   T   T
  0.0000000000000000  0.0000000000000000  0.3534643803985212   T   T   T
  0.3333330000000032  0.6666669999999968  0.4104783830627632   T   T   T
  0.0000000000000000  0.0000000000000000  0.5245411868195120   T   T   T
  0.3333330000000032  0.6666669999999968  0.5815809956555423   T   T   T
 -0.0000000000000000 -0.0000000000000000  0.6956138826596571   T   T   T
  0.3333330000000032  0.6666669999999968  0.7526256861874927   T   T   T
  0.6666669999999968  0.3333330000000032  0.2964550727476052   T   T   T
  0.6666669999999968  0.3333330000000032  0.4675013285081920   T   T   T
  0.6666669999999968  0.3333330000000032  0.6386023842601495   T   T   T
  0.6666669999999968  0.3333330000000032  0.8102111997248758   T   T   T
  0.0000000000000000 -0.0000000000000000  0.2680313684164570   T   T   T
 -0.0000000000000000 -0.0000000000000000  0.4389868083895203   T   T   T
 -0.0000000000000000 -0.0000000000000000  0.6100946097956762   T   T   T
 -0.0000000000000000 -0.0000000000000000  0.7810499513258851   T   T   T
  0.6666669999999968  0.3333330000000032  0.3819762911667285   T   T   T
  0.6666669999999968  0.3333330000000032  0.5530610507248795   T   T   T
  0.6666669999999968  0.3333330000000032  0.7241064828993776   T   T   T
  0.3333330000000032  0.6666669999999968  0.3249794452021413   T   T   T
  0.3333330000000032  0.6666669999999968  0.4960190537785732   T   T   T
  0.3333330000000032  0.6666669999999968  0.6671092194982944   T   T   T
 -0.0000000000000000 -0.0000000000000000  0.0245422583034411   T   T   T
  0.0000000000000000 -0.0000000000000000  0.2049988316935936   T   T   T
  0.6666669999999968  0.3333330000000032  0.1495924109806979   T   T   T
  0.3333330000000032  0.6666669999999968  0.0850453604826328   T   T   T
 -0.0000000000000000 -0.0000000000000000  0.8440849086322831   T   T   T
  0.6666669999999968  0.3333330000000032  0.9640373612461471   T   T   T
  0.3333330000000032  0.6666669999999968  0.8994910178424688   T   T   T
 
  0.00000000E+00  0.00000000E+00  0.00000000E+00
  0.00000000E+00  0.00000000E+00  0.00000000E+00
  0.00000000E+00  0.00000000E+00  0.00000000E+00
  0.00000000E+00  0.00000000E+00  0.00000000E+00
  0.00000000E+00  0.00000000E+00  0.00000000E+00
  0.00000000E+00  0.00000000E+00  0.00000000E+00
  0.00000000E+00  0.00000000E+00  0.00000000E+00
  0.00000000E+00  0.00000000E+00  0.00000000E+00
  0.00000000E+00  0.00000000E+00  0.00000000E+00
  0.00000000E+00  0.00000000E+00  0.00000000E+00
  0.00000000E+00  0.00000000E+00  0.00000000E+00
  0.00000000E+00  0.00000000E+00  0.00000000E+00
  0.00000000E+00  0.00000000E+00  0.00000000E+00
  0.00000000E+00  0.00000000E+00  0.00000000E+00
  0.00000000E+00  0.00000000E+00  0.00000000E+00
  0.00000000E+00  0.00000000E+00  0.00000000E+00
  0.00000000E+00  0.00000000E+00  0.00000000E+00
  0.00000000E+00  0.00000000E+00  0.00000000E+00
  0.00000000E+00  0.00000000E+00  0.00000000E+00
  0.00000000E+00  0.00000000E+00  0.00000000E+00
  0.00000000E+00  0.00000000E+00  0.00000000E+00
  0.00000000E+00  0.00000000E+00  0.00000000E+00
  0.00000000E+00  0.00000000E+00  0.00000000E+00
  0.00000000E+00  0.00000000E+00  0.00000000E+00
  0.00000000E+00  0.00000000E+00  0.00000000E+00
  0.00000000E+00  0.00000000E+00  0.00000000E+00
  0.00000000E+00  0.00000000E+00  0.00000000E+00
  0.00000000E+00  0.00000000E+00  0.00000000E+00
