Layer (26)                              
   1.00000000000000     
     2.6073001451353437   -1.5053251247893427    0.0000000000000000
     0.0000000000000000    3.0106502495786853    0.0000000000000000
    -0.0000000000000004    0.0000000000000000   68.5120394419064809
   O    Mg   Al
    10     9     7
Selective dynamics
Direct
  0.0000000000000000 -0.0000000000000000  0.4497306028518721   T   T   T
  0.3333330000000032  0.6666669999999968  0.4840451890053405   T   T   T
  0.0000000000000000 -0.0000000000000000  0.5557272758652638   T   T   T
  0.3333330000000032  0.6666669999999968  0.5915732842910723   T   T   T
  0.0000000000000000 -0.0000000000000000  0.6632076979740402   T   T   T
  0.3333330000000032  0.6666669999999968  0.6989237666881610   T   T   T
  0.0000000000000000  0.0000000000000000  0.7673874458541533   T   T   T
  0.6666669999999968  0.3333330000000032  0.5198942304471367   T   T   T
  0.6666669999999968  0.3333330000000032  0.6273948984692267   T   T   T
  0.6666669999999968  0.3333330000000032  0.7341665852154688   T   T   T
  0.0000000000000000 -0.0000000000000000  0.5022440960835897   T   T   T
  0.0000000000000000 -0.0000000000000000  0.6097476331286704   T   T   T
  0.0000000000000000 -0.0000000000000000  0.7173776130013121   T   T   T
  0.6666669999999968  0.3333330000000032  0.4663317333762063   T   T   T
  0.6666669999999968  0.3333330000000032  0.5739175685776751   T   T   T
  0.6666669999999968  0.3333330000000032  0.6814123266730835   T   T   T
  0.3333330000000032  0.6666669999999968  0.5380790166666134   T   T   T
  0.3333330000000032  0.6666669999999968  0.6455750251115600   T   T   T
  0.3333330000000032  0.6666669999999968  0.7541134637165496   T   T   T
  0.0000000000000000  0.0000000000000000  0.2314958045768699   T   T   T
  0.0000000000000000 -0.0000000000000000  0.3282738885381861   T   T   T
  0.0000000000000000 -0.0000000000000000  0.4246353975976939   T   T   T
  0.6666669999999968  0.3333330000000032  0.2961632388218814   T   T   T
  0.6666669999999968  0.3333330000000032  0.3933173037905226   T   T   T
  0.3333330000000032  0.6666669999999968  0.2640788432665805   T   T   T
  0.3333330000000032  0.6666669999999968  0.3607140704112849   T   T   T
 
  0.00000000E+00  0.00000000E+00  0.00000000E+00
  0.00000000E+00  0.00000000E+00  0.00000000E+00
  0.00000000E+00  0.00000000E+00  0.00000000E+00
  0.00000000E+00  0.00000000E+00  0.00000000E+00
  0.00000000E+00  0.00000000E+00  0.00000000E+00
  0.00000000E+00  0.00000000E+00  0.00000000E+00
  0.00000000E+00  0.00000000E+00  0.00000000E+00
  0.00000000E+00  0.00000000E+00  0.00000000E+00
  0.00000000E+00  0.00000000E+00  0.00000000E+00
  0.00000000E+00  0.00000000E+00  0.00000000E+00
  0.00000000E+00  0.00000000E+00  0.00000000E+00
  0.00000000E+00  0.00000000E+00  0.00000000E+00
  0.00000000E+00  0.00000000E+00  0.00000000E+00
  0.00000000E+00  0.00000000E+00  0.00000000E+00
  0.00000000E+00  0.00000000E+00  0.00000000E+00
  0.00000000E+00  0.00000000E+00  0.00000000E+00
  0.00000000E+00  0.00000000E+00  0.00000000E+00
  0.00000000E+00  0.00000000E+00  0.00000000E+00
  0.00000000E+00  0.00000000E+00  0.00000000E+00
  0.00000000E+00  0.00000000E+00  0.00000000E+00
  0.00000000E+00  0.00000000E+00  0.00000000E+00
  0.00000000E+00  0.00000000E+00  0.00000000E+00
  0.00000000E+00  0.00000000E+00  0.00000000E+00
  0.00000000E+00  0.00000000E+00  0.00000000E+00
  0.00000000E+00  0.00000000E+00  0.00000000E+00
  0.00000000E+00  0.00000000E+00  0.00000000E+00
