Layer                                   
   1.00000000000000     
     2.5925900057573852   -1.4952752265876454    0.0518951647512091
     0.0013482762012733    2.9928857367913029   -0.0518951489622574
     0.4089676063014350   -0.7083524578609989   43.9155342504124206
   O    Mg   Al
     9    10     7
Selective dynamics
Direct
  0.5560032510714229  0.4439967489364568  0.3526406104143901   T   T   T
  0.5000156902338601  0.4999843097653942  0.5257890679400740   T   T   T
  0.4440227252830971  0.5559772747076085  0.6989371465471292   T   T   T
  0.2414081106160691  0.7585918893724128  0.2949699052891146   T   T   T
  0.8706402564456903  0.1293597435592690  0.4103586390269248   T   T   T
  0.1853131294670445  0.8146868705315417  0.4680756781004506   T   T   T
  0.8147160117642108  0.1852839882359525  0.5835030129583235   T   T   T
  0.1293884034567968  0.8706115965368297  0.6412202069101821   T   T   T
  0.7586143911463310  0.2413856088659117  0.7566075030197358   T   T   T
  0.5843364407129137  0.4156635592926213  0.2653965204333839   T   T   T
  0.5279708891241501  0.4720291108789548  0.4392133699752190   T   T   T
  0.4720588427489355  0.5279411572496221  0.6123648431532372   T   T   T
  0.4156834431361267  0.5843165568555103  0.7861811642144931   T   T   T
  0.8986870675007591  0.1013129325139208  0.3238149698149066   T   T   T
  0.2133123017628175  0.7866876982445435  0.3815185563623540   T   T   T
  0.8426651581337493  0.1573348418683043  0.4969196448348936   T   T   T
  0.1573653301021719  0.8426346698968901  0.5546593978883517   T   T   T
  0.7867152248957120  0.2132847750983904  0.6700594672050979   T   T   T
  0.1013370296767600  0.8986629703104003  0.7277629355195636   T   T   T
  0.9999330866474009  0.0000669133468864  0.0257896572702604   T   T   T
  0.9377920310105284  0.0622079690041233  0.2045495531703721   T   T   T
  0.6261163104122540  0.3738836895623370  0.1435098244945483   T   T   T
  0.3130132156189921  0.6869867843775970  0.0839002167817181   T   T   T
  0.0622027943156422  0.9377972056675108  0.8470271920053337   T   T   T
  0.6868877078556026  0.3131122921555605  0.9676784208427767   T   T   T
  0.3738011568609474  0.6261988431654633  0.9080674958271105   T   T   T
 
  0.00000000E+00  0.00000000E+00  0.00000000E+00
  0.00000000E+00  0.00000000E+00  0.00000000E+00
  0.00000000E+00  0.00000000E+00  0.00000000E+00
  0.00000000E+00  0.00000000E+00  0.00000000E+00
  0.00000000E+00  0.00000000E+00  0.00000000E+00
  0.00000000E+00  0.00000000E+00  0.00000000E+00
  0.00000000E+00  0.00000000E+00  0.00000000E+00
  0.00000000E+00  0.00000000E+00  0.00000000E+00
  0.00000000E+00  0.00000000E+00  0.00000000E+00
  0.00000000E+00  0.00000000E+00  0.00000000E+00
  0.00000000E+00  0.00000000E+00  0.00000000E+00
  0.00000000E+00  0.00000000E+00  0.00000000E+00
  0.00000000E+00  0.00000000E+00  0.00000000E+00
  0.00000000E+00  0.00000000E+00  0.00000000E+00
  0.00000000E+00  0.00000000E+00  0.00000000E+00
  0.00000000E+00  0.00000000E+00  0.00000000E+00
  0.00000000E+00  0.00000000E+00  0.00000000E+00
  0.00000000E+00  0.00000000E+00  0.00000000E+00
  0.00000000E+00  0.00000000E+00  0.00000000E+00
  0.00000000E+00  0.00000000E+00  0.00000000E+00
  0.00000000E+00  0.00000000E+00  0.00000000E+00
  0.00000000E+00  0.00000000E+00  0.00000000E+00
  0.00000000E+00  0.00000000E+00  0.00000000E+00
  0.00000000E+00  0.00000000E+00  0.00000000E+00
  0.00000000E+00  0.00000000E+00  0.00000000E+00
  0.00000000E+00  0.00000000E+00  0.00000000E+00
