Layer                                   
   1.00000000000000     
     2.5925900057573852   -1.4952752265876454    0.0518951647512091
     0.0013482762012733    2.9928857367913029   -0.0518951489622574
0.4089676063014350 -0.7083524578609989 43.9155342504124227
   O    Mg   Al
     9    10     7
Selective dynamics
Direct
  0.5562269636705235  0.4437730363373566  0.3512027689801173   T   T   T
  0.5000190198713753  0.4999809801278784  0.5257881227590405   T   T   T
  0.4438020405083056  0.5561979594824003  0.7003752016399386   T   T   T
  0.2417392427928640  0.7582607571956180  0.2930056466783518   T   T   T
  0.8707612412138493  0.1292387587911100  0.4094708622133478   T   T   T
  0.1853602311914482  0.8146397688071376  0.4676910467321963   T   T   T
  0.8146763046299283  0.1853236953702349  0.5838869207363359   T   T   T
  0.1292711059172623  0.8707288940763641  0.6421074953487904   T   T   T
  0.7582847841167420  0.2417152158955004  0.7585735586768910   T   T   T
  0.5847228396116334  0.4152771603939018  0.2632175844007629   T   T   T
  0.5280558468088441  0.4719441531942608  0.4385917392385014   T   T   T
  0.4719791816338668  0.5280208183646908  0.6129857104017933   T   T   T
  0.4152983420923089  0.5847016578993278  0.7883610715483541   T   T   T
  0.8989749801406538  0.1010250198740330  0.3220987377045448   T   T   T
  0.2134741875437120  0.7865258124636491  0.3803638489393540   T   T   T
  0.8426879804310907  0.1573120195709560  0.4967510159900151   T   T   T
  0.1573492499157189  0.8426507500833430  0.5548275246613968   T   T   T
  0.7865570623572753  0.2134429376368273  0.6712143610625598   T   T   T
  0.1010519639435660  0.8989480360435947  0.7294799077625111   T   T   T
  0.9999253397118910  0.0000746602823962  0.0257880341594752   T   T   T
  0.9382692436521102  0.0617307563625410  0.2024945055090993   T   T   T
  0.6262480277559977  0.3737519722185932  0.1425729918345112   T   T   T
  0.3128820236872545  0.6871179763093416  0.0840184669778963   T   T   T
  0.0617166003189156  0.9382833996642375  0.8490857305482155   T   T   T
  0.6870062485200950  0.3129937514910675  0.9675572545205922   T   T   T
  0.3736599479627593  0.6263400520636515  0.9090048909753536   T   T   T
 
  0.00000000E+00  0.00000000E+00  0.00000000E+00
  0.00000000E+00  0.00000000E+00  0.00000000E+00
  0.00000000E+00  0.00000000E+00  0.00000000E+00
  0.00000000E+00  0.00000000E+00  0.00000000E+00
  0.00000000E+00  0.00000000E+00  0.00000000E+00
  0.00000000E+00  0.00000000E+00  0.00000000E+00
  0.00000000E+00  0.00000000E+00  0.00000000E+00
  0.00000000E+00  0.00000000E+00  0.00000000E+00
  0.00000000E+00  0.00000000E+00  0.00000000E+00
  0.00000000E+00  0.00000000E+00  0.00000000E+00
  0.00000000E+00  0.00000000E+00  0.00000000E+00
  0.00000000E+00  0.00000000E+00  0.00000000E+00
  0.00000000E+00  0.00000000E+00  0.00000000E+00
  0.00000000E+00  0.00000000E+00  0.00000000E+00
  0.00000000E+00  0.00000000E+00  0.00000000E+00
  0.00000000E+00  0.00000000E+00  0.00000000E+00
  0.00000000E+00  0.00000000E+00  0.00000000E+00
  0.00000000E+00  0.00000000E+00  0.00000000E+00
  0.00000000E+00  0.00000000E+00  0.00000000E+00
  0.00000000E+00  0.00000000E+00  0.00000000E+00
  0.00000000E+00  0.00000000E+00  0.00000000E+00
  0.00000000E+00  0.00000000E+00  0.00000000E+00
  0.00000000E+00  0.00000000E+00  0.00000000E+00
  0.00000000E+00  0.00000000E+00  0.00000000E+00
  0.00000000E+00  0.00000000E+00  0.00000000E+00
  0.00000000E+00  0.00000000E+00  0.00000000E+00
