Layer (26)                              
   1.00000000000000     
     2.6073001451353437   -1.5053251247893427    0.0000000000000000
     0.0000000000000000    3.0106502495786853    0.0000000000000000
    -0.0000000000000004    0.0000000000000000   68.5120394419064809
   O    Mg   Al
    10     9     7
Selective dynamics
Direct
  0.0000000000000000  0.0000000000000000  0.4497306028518722   T   T   T
  0.3333330000000032  0.6666669999999968  0.4840451890053430   T   T   T
  0.0000000000000000  0.0000000000000000  0.5557272758652658   T   T   T
  0.3333330000000032  0.6666669999999968  0.5915732842910728   T   T   T
  0.0000000000000000  0.0000000000000000  0.6632076979740376   T   T   T
  0.3333330000000032  0.6666669999999968  0.6989237666881607   T   T   T
  0.0000000000000000  0.0000000000000000  0.7673874458541547   T   T   T
  0.6666669999999968  0.3333330000000032  0.5198942304471359   T   T   T
  0.6666669999999968  0.3333330000000032  0.6273948984692268   T   T   T
  0.6666669999999968  0.3333330000000032  0.7341665852154691   T   T   T
  0.0000000000000000  0.0000000000000000  0.5022440960835866   T   T   T
  0.0000000000000000  0.0000000000000000  0.6097476331286700   T   T   T
  0.0000000000000000  0.0000000000000000  0.7173776130013110   T   T   T
  0.6666669999999968  0.3333330000000032  0.4663317333762080   T   T   T
  0.6666669999999968  0.3333330000000032  0.5739175685776772   T   T   T
  0.6666669999999968  0.3333330000000032  0.6814123266730832   T   T   T
  0.3333330000000032  0.6666669999999968  0.5380790166666145   T   T   T
  0.3333330000000032  0.6666669999999968  0.6455750251115617   T   T   T
  0.3333330000000032  0.6666669999999968  0.7541134637165499   T   T   T
  0.0000000000000000  0.0000000000000000  0.2314958045768734   T   T   T
  0.0000000000000000  0.0000000000000000  0.3282738885381846   T   T   T
  0.0000000000000000  0.0000000000000000  0.4246353975976973   T   T   T
  0.6666669999999968  0.3333330000000032  0.2961632388218831   T   T   T
  0.6666669999999968  0.3333330000000032  0.3933173037905249   T   T   T
  0.3333330000000032  0.6666669999999968  0.2640788432665815   T   T   T
  0.3333330000000032  0.6666669999999968  0.3607140704112837   T   T   T
 
  0.00000000E+00  0.00000000E+00  0.00000000E+00
  0.00000000E+00  0.00000000E+00  0.00000000E+00
  0.00000000E+00  0.00000000E+00  0.00000000E+00
  0.00000000E+00  0.00000000E+00  0.00000000E+00
  0.00000000E+00  0.00000000E+00  0.00000000E+00
  0.00000000E+00  0.00000000E+00  0.00000000E+00
  0.00000000E+00  0.00000000E+00  0.00000000E+00
  0.00000000E+00  0.00000000E+00  0.00000000E+00
  0.00000000E+00  0.00000000E+00  0.00000000E+00
  0.00000000E+00  0.00000000E+00  0.00000000E+00
  0.00000000E+00  0.00000000E+00  0.00000000E+00
  0.00000000E+00  0.00000000E+00  0.00000000E+00
  0.00000000E+00  0.00000000E+00  0.00000000E+00
  0.00000000E+00  0.00000000E+00  0.00000000E+00
  0.00000000E+00  0.00000000E+00  0.00000000E+00
  0.00000000E+00  0.00000000E+00  0.00000000E+00
  0.00000000E+00  0.00000000E+00  0.00000000E+00
  0.00000000E+00  0.00000000E+00  0.00000000E+00
  0.00000000E+00  0.00000000E+00  0.00000000E+00
  0.00000000E+00  0.00000000E+00  0.00000000E+00
  0.00000000E+00  0.00000000E+00  0.00000000E+00
  0.00000000E+00  0.00000000E+00  0.00000000E+00
  0.00000000E+00  0.00000000E+00  0.00000000E+00
  0.00000000E+00  0.00000000E+00  0.00000000E+00
  0.00000000E+00  0.00000000E+00  0.00000000E+00
  0.00000000E+00  0.00000000E+00  0.00000000E+00
