Layer                                   
   1.00000000000000     
     2.5919820456764819   -1.4964810761798768    0.0000000000000000
     0.0000000000000001    2.9929621523597536    0.0000000000000000
     0.0000000000000000   -0.0000000000000001   46.3356515275367045
   O    Mg   Al
     9    10     7
Selective dynamics
Direct
 -0.0000000000000000  0.0000000000000000  0.3662261040112690   T   T   T
  0.3333330000000032  0.6666669999999968  0.4193881691659871   T   T   T
 -0.0000000000000000  0.0000000000000000  0.5257923361808499   T   T   T
  0.3333330000000032  0.6666669999999968  0.5790003498517338   T   T   T
 -0.0000000000000000  0.0000000000000000  0.6853704572576561   T   T   T
  0.3333330000000032  0.6666669999999968  0.7384274359822632   T   T   T
  0.6666669999999968  0.3333330000000032  0.3131613710639146   T   T   T
  0.6666669999999968  0.3333330000000032  0.4725874218401653   T   T   T
  0.6666669999999968  0.3333330000000032  0.6322016893729530   T   T   T
 -0.0000000000000000  0.0000000000000000  0.2854959292459090   T   T   T
 -0.0000000000000000  0.0000000000000000  0.4459842888147693   T   T   T
 -0.0000000000000000  0.0000000000000000  0.6056049325224739   T   T   T
 -0.0000000000000000  0.0000000000000000  0.7660969530659639   T   T   T
  0.6666669999999968  0.3333330000000032  0.3928138805731488   T   T   T
  0.6666669999999968  0.3333330000000032  0.5523987529009536   T   T   T
  0.6666669999999968  0.3333330000000032  0.7119400163968256   T   T   T
  0.3333330000000032  0.6666669999999968  0.3396443181854075   T   T   T
  0.3333330000000032  0.6666669999999968  0.4991875466013524   T   T   T
  0.3333330000000032  0.6666669999999968  0.6587756263772950   T   T   T
 -0.0000000000000000  0.0000000000000000  0.0257741490201563   T   T   T
 -0.0000000000000000  0.0000000000000000  0.1707948056750215   T   T   T
  0.6666669999999968  0.3333330000000032  0.1220864343841452   T   T   T
  0.3333330000000032  0.6666669999999968  0.0738185554003120   T   T   T
 -0.0000000000000000  0.0000000000000000  0.8807524233507409   T   T   T
  0.6666669999999968  0.3333330000000032  0.9777296179728140   T   T   T
  0.3333330000000032  0.6666669999999968  0.9294614347859276   T   T   T
 
  0.00000000E+00  0.00000000E+00  0.00000000E+00
  0.00000000E+00  0.00000000E+00  0.00000000E+00
  0.00000000E+00  0.00000000E+00  0.00000000E+00
  0.00000000E+00  0.00000000E+00  0.00000000E+00
  0.00000000E+00  0.00000000E+00  0.00000000E+00
  0.00000000E+00  0.00000000E+00  0.00000000E+00
  0.00000000E+00  0.00000000E+00  0.00000000E+00
  0.00000000E+00  0.00000000E+00  0.00000000E+00
  0.00000000E+00  0.00000000E+00  0.00000000E+00
  0.00000000E+00  0.00000000E+00  0.00000000E+00
  0.00000000E+00  0.00000000E+00  0.00000000E+00
  0.00000000E+00  0.00000000E+00  0.00000000E+00
  0.00000000E+00  0.00000000E+00  0.00000000E+00
  0.00000000E+00  0.00000000E+00  0.00000000E+00
  0.00000000E+00  0.00000000E+00  0.00000000E+00
  0.00000000E+00  0.00000000E+00  0.00000000E+00
  0.00000000E+00  0.00000000E+00  0.00000000E+00
  0.00000000E+00  0.00000000E+00  0.00000000E+00
  0.00000000E+00  0.00000000E+00  0.00000000E+00
  0.00000000E+00  0.00000000E+00  0.00000000E+00
  0.00000000E+00  0.00000000E+00  0.00000000E+00
  0.00000000E+00  0.00000000E+00  0.00000000E+00
  0.00000000E+00  0.00000000E+00  0.00000000E+00
  0.00000000E+00  0.00000000E+00  0.00000000E+00
  0.00000000E+00  0.00000000E+00  0.00000000E+00
  0.00000000E+00  0.00000000E+00  0.00000000E+00
