Layer                                   
   1.00000000000000     
     2.5919820456764819   -1.4964810761798768    0.0000000000000000
     0.0000000000000001    2.9929621523597536    0.0000000000000000
0.0000000000000000 -0.0000000000000001 46.3356515275367026
   O    Mg   Al
     9    10     7
Selective dynamics
Direct
  0.0000000000000000 -0.0000000000000000  0.3648974086202390   T   T   T
  0.3333330000000032  0.6666669999999968  0.4185163628434679   T   T   T
  0.0000000000000000 -0.0000000000000000  0.5257903994035078   T   T   T
  0.3333330000000032  0.6666669999999968  0.5794475833441096   T   T   T
  0.0000000000000000 -0.0000000000000000  0.6867038058698348   T   T   T
  0.3333330000000032  0.6666669999999968  0.7402727818163729   T   T   T
  0.6666669999999968  0.3333330000000032  0.3113090596661295   T   T   T
  0.6666669999999968  0.3333330000000032  0.4721393468515449   T   T   T
  0.6666669999999968  0.3333330000000032  0.6330722586780272   T   T   T
  0.0000000000000000 -0.0000000000000000  0.2833930306085615   T   T   T
  0.0000000000000000 -0.0000000000000000  0.4453257253737557   T   T   T
  0.0000000000000000 -0.0000000000000000  0.6062566947497133   T   T   T
  0.0000000000000000 -0.0000000000000000  0.7682038338810351   T   T   T
  0.6666669999999968  0.3333330000000032  0.3917066545952718   T   T   T
  0.6666669999999968  0.3333330000000032  0.5526200499994027   T   T   T
  0.6666669999999968  0.3333330000000032  0.7135189829371927   T   T   T
  0.3333330000000032  0.6666669999999968  0.3380614041434158   T   T   T
  0.3333330000000032  0.6666669999999968  0.4989618846125239   T   T   T
  0.3333330000000032  0.6666669999999968  0.6598817801732717   T   T   T
  0.0000000000000000 -0.0000000000000000  0.0257769389859447   T   T   T
  0.0000000000000000 -0.0000000000000000  0.1724129915457741   T   T   T
  0.6666669999999968  0.3333330000000032  0.1231311557139578   T   T   T
  0.3333330000000032  0.6666669999999968  0.0743363676283029   T   T   T
  0.0000000000000000 -0.0000000000000000  0.8791391425598943   T   T   T
  0.6666669999999968  0.3333330000000032  0.9772174431757928   T   T   T
  0.3333330000000032  0.6666669999999968  0.9284219122229622   T   T   T
 
  0.00000000E+00  0.00000000E+00  0.00000000E+00
  0.00000000E+00  0.00000000E+00  0.00000000E+00
  0.00000000E+00  0.00000000E+00  0.00000000E+00
  0.00000000E+00  0.00000000E+00  0.00000000E+00
  0.00000000E+00  0.00000000E+00  0.00000000E+00
  0.00000000E+00  0.00000000E+00  0.00000000E+00
  0.00000000E+00  0.00000000E+00  0.00000000E+00
  0.00000000E+00  0.00000000E+00  0.00000000E+00
  0.00000000E+00  0.00000000E+00  0.00000000E+00
  0.00000000E+00  0.00000000E+00  0.00000000E+00
  0.00000000E+00  0.00000000E+00  0.00000000E+00
  0.00000000E+00  0.00000000E+00  0.00000000E+00
  0.00000000E+00  0.00000000E+00  0.00000000E+00
  0.00000000E+00  0.00000000E+00  0.00000000E+00
  0.00000000E+00  0.00000000E+00  0.00000000E+00
  0.00000000E+00  0.00000000E+00  0.00000000E+00
  0.00000000E+00  0.00000000E+00  0.00000000E+00
  0.00000000E+00  0.00000000E+00  0.00000000E+00
  0.00000000E+00  0.00000000E+00  0.00000000E+00
  0.00000000E+00  0.00000000E+00  0.00000000E+00
  0.00000000E+00  0.00000000E+00  0.00000000E+00
  0.00000000E+00  0.00000000E+00  0.00000000E+00
  0.00000000E+00  0.00000000E+00  0.00000000E+00
  0.00000000E+00  0.00000000E+00  0.00000000E+00
  0.00000000E+00  0.00000000E+00  0.00000000E+00
  0.00000000E+00  0.00000000E+00  0.00000000E+00
