Layer                                   
   1.00000000000000     
     2.5925900057573852   -1.4952752265876454    0.0518951647512091
     0.0013482762012733    2.9928857367913029   -0.0518951489622574
     0.4089676063014350   -0.7083524578609989   47.1386927275069141
   O    Mg   Al
     9    10     7
Selective dynamics
Direct
  0.5527239593803777  0.4472760406275027  0.3691326449777489   T   T   T
  0.5000273551918252  0.4999726448074293  0.5257476427706470   T   T   T
  0.4473149218865042  0.5526850781042023  0.6824085901720159   T   T   T
  0.2369607696374180  0.7630392303510568  0.3170531672147794   T   T   T
  0.8684796782037976  0.1315203218011617  0.4213244531003321   T   T   T
  0.1842454864170210  0.8157545135815650  0.4735462884982090   T   T   T
  0.8158063787463770  0.1841936212537864  0.5779609827855189   T   T   T
  0.1315672441688817  0.8684327558247449  0.6301978120896750   T   T   T
  0.7630782190133649  0.2369217809988775  0.7344874837051401   T   T   T
  0.5792963481350730  0.4207036518704620  0.2903498782510818   T   T   T
  0.5263618834697839  0.4736381165333136  0.4474356662070075   T   T   T
  0.4736811943662032  0.5263188056323544  0.6040953431698882   T   T   T
  0.4207483927662637  0.5792516072253800  0.7611746393998541   T   T   T
  0.8948605870854930  0.1051394129291935  0.3430158446663009   T   T   T
  0.2106027377379365  0.7893972622694245  0.3952155369113997   T   T   T
  0.8421316113712320  0.1578683886308213  0.4996589444282404   T   T   T
  0.1579061478996750  0.8420938520993867  0.5518806437818726   T   T   T
  0.7894418621312805  0.2105581378628222  0.6563109524424435   T   T   T
  0.1051912729614520  0.8948087270257080  0.7084901398944333   T   T   T
  0.9999049658888002  0.0000950341054871  0.0259039439450131   T   T   T
  0.9300375564367278  0.0699624435779238  0.2391336086071499   T   T   T
  0.6345037797480045  0.3654962202265865  0.1201123060446689   T   T   T
  0.3174251458974447  0.6825748540991444  0.0725829250925207   T   T   T
  0.0700122069971645  0.9299877929859885  0.8123756247176879   T   T   T
  0.6823846426330646  0.3176153573780985  0.9792246448222131   T   T   T
  0.3653056518288765  0.6346943481975347  0.9316952923040966   T   T   T
 
  0.00000000E+00  0.00000000E+00  0.00000000E+00
  0.00000000E+00  0.00000000E+00  0.00000000E+00
  0.00000000E+00  0.00000000E+00  0.00000000E+00
  0.00000000E+00  0.00000000E+00  0.00000000E+00
  0.00000000E+00  0.00000000E+00  0.00000000E+00
  0.00000000E+00  0.00000000E+00  0.00000000E+00
  0.00000000E+00  0.00000000E+00  0.00000000E+00
  0.00000000E+00  0.00000000E+00  0.00000000E+00
  0.00000000E+00  0.00000000E+00  0.00000000E+00
  0.00000000E+00  0.00000000E+00  0.00000000E+00
  0.00000000E+00  0.00000000E+00  0.00000000E+00
  0.00000000E+00  0.00000000E+00  0.00000000E+00
  0.00000000E+00  0.00000000E+00  0.00000000E+00
  0.00000000E+00  0.00000000E+00  0.00000000E+00
  0.00000000E+00  0.00000000E+00  0.00000000E+00
  0.00000000E+00  0.00000000E+00  0.00000000E+00
  0.00000000E+00  0.00000000E+00  0.00000000E+00
  0.00000000E+00  0.00000000E+00  0.00000000E+00
  0.00000000E+00  0.00000000E+00  0.00000000E+00
  0.00000000E+00  0.00000000E+00  0.00000000E+00
  0.00000000E+00  0.00000000E+00  0.00000000E+00
  0.00000000E+00  0.00000000E+00  0.00000000E+00
  0.00000000E+00  0.00000000E+00  0.00000000E+00
  0.00000000E+00  0.00000000E+00  0.00000000E+00
  0.00000000E+00  0.00000000E+00  0.00000000E+00
  0.00000000E+00  0.00000000E+00  0.00000000E+00
