Layer                                   
   1.00000000000000     
     2.5922013181189856   -1.4966076734688392    0.0000000000000000
     0.0000000000000000    2.9932153469376783    0.0000000000000000
    -0.0000000000000002   -0.0000000000000000   42.8438259835840753
   O    Mg   Al
    10    11     7
Selective dynamics
Direct
 -0.0000000000000000 -0.0000000000000000  0.2667115120454177   T   T   T
  0.3333330000000032  0.6666669999999968  0.3239636506455697   T   T   T
 -0.0000000000000000 -0.0000000000000000  0.4385109215208829   T   T   T
  0.3333330000000032  0.6666669999999968  0.4957126583953251   T   T   T
  0.0000000000000000  0.0000000000000000  0.6101120213610272   T   T   T
  0.3333330000000032  0.6666669999999968  0.6673512713283800   T   T   T
  0.0000000000000000  0.0000000000000000  0.7819148343823962   T   T   T
  0.6666669999999968  0.3333330000000032  0.3812661701118412   T   T   T
  0.6666669999999968  0.3333330000000032  0.5529049699888329   T   T   T
  0.6666669999999968  0.3333330000000032  0.7246465073264763   T   T   T
 -0.0000000000000000 -0.0000000000000000  0.3526125580439126   T   T   T
  0.0000000000000000  0.0000000000000000  0.5243126923493123   T   T   T
  0.0000000000000000  0.0000000000000000  0.6960021629642820   T   T   T
  0.6666669999999968  0.3333330000000032  0.2953130522422843   T   T   T
  0.6666669999999968  0.3333330000000032  0.4671071938381490   T   T   T
  0.6666669999999968  0.3333330000000032  0.6387347404272795   T   T   T
  0.6666669999999968  0.3333330000000032  0.8115918831436443   T   T   T
  0.3333330000000032  0.6666669999999968  0.2370532968339671   T   T   T
  0.3333330000000032  0.6666669999999968  0.4098892493890335   T   T   T
  0.3333330000000032  0.6666669999999968  0.5815205141113086   T   T   T
  0.3333330000000032  0.6666669999999968  0.7532998095825049   T   T   T
  0.0000000000000000  0.0000000000000000  0.0243543032616974   T   T   T
 -0.0000000000000000 -0.0000000000000000  0.1806577541431115   T   T   T
  0.6666669999999968  0.3333330000000032  0.1286911143595496   T   T   T
  0.3333330000000032  0.6666669999999968  0.0765576062406465   T   T   T
  0.0000000000000000  0.0000000000000000  0.8680489323840449   T   T   T
  0.6666669999999968  0.3333330000000032  0.9721416185233377   T   T   T
  0.3333330000000032  0.6666669999999968  0.9199880010558268   T   T   T
 
  0.00000000E+00  0.00000000E+00  0.00000000E+00
  0.00000000E+00  0.00000000E+00  0.00000000E+00
  0.00000000E+00  0.00000000E+00  0.00000000E+00
  0.00000000E+00  0.00000000E+00  0.00000000E+00
  0.00000000E+00  0.00000000E+00  0.00000000E+00
  0.00000000E+00  0.00000000E+00  0.00000000E+00
  0.00000000E+00  0.00000000E+00  0.00000000E+00
  0.00000000E+00  0.00000000E+00  0.00000000E+00
  0.00000000E+00  0.00000000E+00  0.00000000E+00
  0.00000000E+00  0.00000000E+00  0.00000000E+00
  0.00000000E+00  0.00000000E+00  0.00000000E+00
  0.00000000E+00  0.00000000E+00  0.00000000E+00
  0.00000000E+00  0.00000000E+00  0.00000000E+00
  0.00000000E+00  0.00000000E+00  0.00000000E+00
  0.00000000E+00  0.00000000E+00  0.00000000E+00
  0.00000000E+00  0.00000000E+00  0.00000000E+00
  0.00000000E+00  0.00000000E+00  0.00000000E+00
  0.00000000E+00  0.00000000E+00  0.00000000E+00
  0.00000000E+00  0.00000000E+00  0.00000000E+00
  0.00000000E+00  0.00000000E+00  0.00000000E+00
  0.00000000E+00  0.00000000E+00  0.00000000E+00
  0.00000000E+00  0.00000000E+00  0.00000000E+00
  0.00000000E+00  0.00000000E+00  0.00000000E+00
  0.00000000E+00  0.00000000E+00  0.00000000E+00
  0.00000000E+00  0.00000000E+00  0.00000000E+00
  0.00000000E+00  0.00000000E+00  0.00000000E+00
  0.00000000E+00  0.00000000E+00  0.00000000E+00
  0.00000000E+00  0.00000000E+00  0.00000000E+00
