Layer 
1.0 
2.514528 -1.451763 -0.000000 
-0.000000 2.903526 -0.000000 
0.000000 0.000000 46.691574 
O Mg Al 
10 11 7 
Selective Dynamics
Direct 
-0.000000 -0.000000 0.270952 T T T 
0.333333 0.666667 0.327204 T T T 
-0.000000 -0.000000 0.439708 T T T 
0.333333 0.666667 0.495961 T T T 
-0.000000 -0.000000 0.608465 T T T 
0.333333 0.666667 0.664717 T T T 
-0.000000 -0.000000 0.777222 T T T 
0.666667 0.333333 0.383456 T T T 
0.666667 0.333333 0.552213 T T T 
0.666667 0.333333 0.720970 T T T 
0.000000 0.000000 0.355330 T T T 
0.000000 0.000000 0.524087 T T T 
0.000000 0.000000 0.692844 T T T 
0.666667 0.333333 0.299078 T T T 
0.666667 0.333333 0.467835 T T T 
0.666667 0.333333 0.636591 T T T 
0.666667 0.333333 0.805348 T T T 
0.333333 0.666667 0.242826 T T T 
0.333333 0.666667 0.411582 T T T 
0.333333 0.666667 0.580339 T T T 
0.333333 0.666667 0.749096 T T T 
0.000000 0.000000 0.030627 T T T 
0.000000 0.000000 0.175147 T T T 
0.666667 0.333333 0.126974 T T T 
0.333333 0.666667 0.078800 T T T 
0.000000 0.000000 0.873026 T T T 
0.666667 0.333333 0.969373 T T T 
0.333333 0.666667 0.921200 T T T 
