Layer                                   
   1.00000000000000     
     2.5919820456764819   -1.4964810761798768    0.0000000000000000
     0.0000000000000001    2.9929621523597536    0.0000000000000000
     0.0000000000000000   -0.0000000000000001   45.1055014869826323
   O    Mg   Al
     9    10     7
Selective dynamics
Direct
  0.0000000000000000 -0.0000000000000000  0.3615376283324576   T   T   T
  0.3333330000000032  0.6666669999999968  0.4163055009410436   T   T   T
  0.0000000000000000 -0.0000000000000000  0.5257945374607274   T   T   T
  0.3333330000000032  0.6666669999999968  0.5805413007556325   T   T   T
  0.0000000000000000 -0.0000000000000000  0.6900501608967153   T   T   T
  0.3333330000000032  0.6666669999999968  0.7448061178467398   T   T   T
  0.6666669999999968  0.3333330000000032  0.3067824704762992   T   T   T
  0.6666669999999968  0.3333330000000032  0.4710406663060795   T   T   T
  0.6666669999999968  0.3333330000000032  0.6352702859340104   T   T   T
  0.0000000000000000 -0.0000000000000000  0.2782485500226917   T   T   T
  0.0000000000000000 -0.0000000000000000  0.4436771435063811   T   T   T
  0.0000000000000000 -0.0000000000000000  0.6079031272098253   T   T   T
  0.0000000000000000 -0.0000000000000000  0.7733424032684605   T   T   T
  0.6666669999999968  0.3333330000000032  0.3889206595762690   T   T   T
  0.6666669999999968  0.3333330000000032  0.5531682859383603   T   T   T
  0.6666669999999968  0.3333330000000032  0.7174451618996496   T   T   T
  0.3333330000000032  0.6666669999999968  0.3341437357111308   T   T   T
  0.3333330000000032  0.6666669999999968  0.4984028454884463   T   T   T
  0.3333330000000032  0.6666669999999968  0.6626617818495666   T   T   T
  0.0000000000000000 -0.0000000000000000  0.0257824016140112   T   T   T
  0.0000000000000000 -0.0000000000000000  0.1785245323478490   T   T   T
  0.6666669999999968  0.3333330000000032  0.1273434500748338   T   T   T
  0.3333330000000032  0.6666669999999968  0.0766689763562416   T   T   T
  0.0000000000000000 -0.0000000000000000  0.8730377234252883   T   T   T
  0.6666669999999968  0.3333330000000032  0.9748955948108293   T   T   T
  0.3333330000000032  0.6666669999999968  0.9242199579504771   T   T   T
 
  0.00000000E+00  0.00000000E+00  0.00000000E+00
  0.00000000E+00  0.00000000E+00  0.00000000E+00
  0.00000000E+00  0.00000000E+00  0.00000000E+00
  0.00000000E+00  0.00000000E+00  0.00000000E+00
  0.00000000E+00  0.00000000E+00  0.00000000E+00
  0.00000000E+00  0.00000000E+00  0.00000000E+00
  0.00000000E+00  0.00000000E+00  0.00000000E+00
  0.00000000E+00  0.00000000E+00  0.00000000E+00
  0.00000000E+00  0.00000000E+00  0.00000000E+00
  0.00000000E+00  0.00000000E+00  0.00000000E+00
  0.00000000E+00  0.00000000E+00  0.00000000E+00
  0.00000000E+00  0.00000000E+00  0.00000000E+00
  0.00000000E+00  0.00000000E+00  0.00000000E+00
  0.00000000E+00  0.00000000E+00  0.00000000E+00
  0.00000000E+00  0.00000000E+00  0.00000000E+00
  0.00000000E+00  0.00000000E+00  0.00000000E+00
  0.00000000E+00  0.00000000E+00  0.00000000E+00
  0.00000000E+00  0.00000000E+00  0.00000000E+00
  0.00000000E+00  0.00000000E+00  0.00000000E+00
  0.00000000E+00  0.00000000E+00  0.00000000E+00
  0.00000000E+00  0.00000000E+00  0.00000000E+00
  0.00000000E+00  0.00000000E+00  0.00000000E+00
  0.00000000E+00  0.00000000E+00  0.00000000E+00
  0.00000000E+00  0.00000000E+00  0.00000000E+00
  0.00000000E+00  0.00000000E+00  0.00000000E+00
  0.00000000E+00  0.00000000E+00  0.00000000E+00
