MgO(1 1 1 (2)                           
   1.00000000000000     
     2.1244360000000002   -2.1244360000000002    0.0000000000000000
     0.0000000000000000    2.1244360000000002   -2.1244360000000002
    21.4068669999999983   21.4068669999999983   21.4068669999999983
   O    Mg
    10     9
Selective dynamics
Direct
 -0.0000000000000000 -0.0000000000000000  0.0331259771467612   T   T   T
  0.3333330000000032  0.6666669999999968  0.0944361021570027   T   T   T
  0.0000000000000000 -0.0000000000000000  0.2254991161923761   T   T   T
  0.3333330000000032  0.6666669999999968  0.2915820928130474   T   T   T
  0.0000000000000000 -0.0000000000000000  0.4238868838076237   T   T   T
  0.3333330000000032  0.6666669999999968  0.4899111674190773   T   T   T
 -0.0000000000000000 -0.0000000000000000  0.6162590228532335   T   T   T
  0.6666669999999968  0.3333330000000032  0.1594738325809250   T   T   T
  0.6666669999999968  0.3333330000000032  0.3578039071869524   T   T   T
  0.6666669999999968  0.3333330000000032  0.5549498978429971   T   T   T
  0.0000000000000000 -0.0000000000000000  0.1257875744430592   T   T   T
  0.0000000000000000  0.0000000000000000  0.3246930000000035   T   T   T
  0.0000000000000000  0.0000000000000000  0.5235984255569405   T   T   T
  0.6666669999999968  0.3333330000000032  0.0578906771979545   T   T   T
  0.6666669999999968  0.3333330000000032  0.2584894416395874   T   T   T
  0.6666669999999968  0.3333330000000032  0.4571259222545322   T   T   T
  0.3333330000000032  0.6666669999999968  0.1922600777454675   T   T   T
  0.3333330000000032  0.6666669999999968  0.3908955583604149   T   T   T
  0.3333330000000032  0.6666669999999968  0.5914953228020451   T   T   T
 
  0.00000000E+00  0.00000000E+00  0.00000000E+00
  0.00000000E+00  0.00000000E+00  0.00000000E+00
  0.00000000E+00  0.00000000E+00  0.00000000E+00
  0.00000000E+00  0.00000000E+00  0.00000000E+00
  0.00000000E+00  0.00000000E+00  0.00000000E+00
  0.00000000E+00  0.00000000E+00  0.00000000E+00
  0.00000000E+00  0.00000000E+00  0.00000000E+00
  0.00000000E+00  0.00000000E+00  0.00000000E+00
  0.00000000E+00  0.00000000E+00  0.00000000E+00
  0.00000000E+00  0.00000000E+00  0.00000000E+00
  0.00000000E+00  0.00000000E+00  0.00000000E+00
  0.00000000E+00  0.00000000E+00  0.00000000E+00
  0.00000000E+00  0.00000000E+00  0.00000000E+00
  0.00000000E+00  0.00000000E+00  0.00000000E+00
  0.00000000E+00  0.00000000E+00  0.00000000E+00
  0.00000000E+00  0.00000000E+00  0.00000000E+00
  0.00000000E+00  0.00000000E+00  0.00000000E+00
  0.00000000E+00  0.00000000E+00  0.00000000E+00
  0.00000000E+00  0.00000000E+00  0.00000000E+00
