OT hollow                               
   1.00000000000000     
     2.5811541392653616   -1.5324138013876256    0.0027477723695831
    -0.0365325771383558    3.0015513008946511   -0.0027477716826384
0.0222045901268964 -0.0384594709818474 40.6024563889601924
   O    Mg   Al
    10     9     7
Selective dynamics
Direct
  0.5069778209691403  0.4930221790051238  0.2442239979548353   T   T   T
  0.5063601579147193  0.4936398420844067  0.4320720559339989   T   T   T
  0.4936309381673535  0.5063690618336129  0.6200059308804746   T   T   T
  0.4930197767050659  0.5069802233245783  0.8078464768929257   T   T   T
  0.8486084112709064  0.1513915887259814  0.3066539207470548   T   T   T
  0.1772764451251988  0.8227235548739487  0.3693765226308970   T   T   T
  0.8354552195956032  0.1645447804048160  0.4947414537682931   T   T   T
  0.1645343891236999  0.8354656108759592  0.5573366300899479   T   T   T
  0.8227197319892121  0.1772802680121169  0.6826965099892643   T   T   T
  0.1513795068242919  0.8486204931804188  0.7454177007514743   T   T   T
  0.5128926471954030  0.4871073528109141  0.3380541873693787   T   T   T
  0.4999969511853431  0.5000030488146496  0.5260440643025112   T   T   T
  0.4870994126007187  0.5129005873936321  0.7140169357814429   T   T   T
  0.1852554758584322  0.8147445243172565  0.2753460762312451   T   T   T
  0.8418388057284238  0.1581611942653023  0.4007394217252087   T   T   T
  0.1709161459208101  0.8290838540788845  0.4634074735712251   T   T   T
  0.8290749989995614  0.1709250010006944  0.5886727596068437   T   T   T
  0.1581559856019257  0.8418440144039930  0.6513372557397541   T   T   T
  0.8147365582425077  0.1852634415785353  0.7767213866198752   T   T   T
  0.0000167497377899  0.9999832502289707  0.0260395427986250   T   T   T
  0.9907589728132447  0.0092410270449878  0.2073309027880290   T   T   T
  0.6842317230733885  0.3157682769523260  0.1482291973094858   T   T   T
  0.3277474036815909  0.6722525963144870  0.0867649952745156   T   T   T
  0.0092534830329587  0.9907465171009930  0.8447377435431951   T   T   T
  0.6722775108039062  0.3277224892354795  0.9653125824544933   T   T   T
  0.3157847778387983  0.6842152221379383  0.9038412752450241   T   T   T
 
  0.00000000E+00  0.00000000E+00  0.00000000E+00
  0.00000000E+00  0.00000000E+00  0.00000000E+00
  0.00000000E+00  0.00000000E+00  0.00000000E+00
  0.00000000E+00  0.00000000E+00  0.00000000E+00
  0.00000000E+00  0.00000000E+00  0.00000000E+00
  0.00000000E+00  0.00000000E+00  0.00000000E+00
  0.00000000E+00  0.00000000E+00  0.00000000E+00
  0.00000000E+00  0.00000000E+00  0.00000000E+00
  0.00000000E+00  0.00000000E+00  0.00000000E+00
  0.00000000E+00  0.00000000E+00  0.00000000E+00
  0.00000000E+00  0.00000000E+00  0.00000000E+00
  0.00000000E+00  0.00000000E+00  0.00000000E+00
  0.00000000E+00  0.00000000E+00  0.00000000E+00
  0.00000000E+00  0.00000000E+00  0.00000000E+00
  0.00000000E+00  0.00000000E+00  0.00000000E+00
  0.00000000E+00  0.00000000E+00  0.00000000E+00
  0.00000000E+00  0.00000000E+00  0.00000000E+00
  0.00000000E+00  0.00000000E+00  0.00000000E+00
  0.00000000E+00  0.00000000E+00  0.00000000E+00
  0.00000000E+00  0.00000000E+00  0.00000000E+00
  0.00000000E+00  0.00000000E+00  0.00000000E+00
  0.00000000E+00  0.00000000E+00  0.00000000E+00
  0.00000000E+00  0.00000000E+00  0.00000000E+00
  0.00000000E+00  0.00000000E+00  0.00000000E+00
  0.00000000E+00  0.00000000E+00  0.00000000E+00
  0.00000000E+00  0.00000000E+00  0.00000000E+00
