OT hollow                               
   1.00000000000000     
     2.5811541392653616   -1.5324138013876256    0.0027477723695831
    -0.0365325771383558    3.0015513008946511   -0.0027477716826384
0.0222045901268964 -0.0384594709818474 43.2837506787971862
   O    Mg   Al
    10     9     7
Selective dynamics
Direct
  0.5097346216235619  0.4902653783507024  0.2663230066493062   T   T   T
  0.5084493806695780  0.4915506193295480  0.4394314214522510   T   T   T
  0.4915503069905713  0.5084496930103954  0.6126306348817629   T   T   T
  0.4902685115945766  0.5097314884350673  0.7857317685878858   T   T   T
  0.8519327025591190  0.1480672974377689  0.3238685655104694   T   T   T
  0.1802310537432992  0.8197689462558480  0.3816363070884760   T   T   T
  0.8364504237608760  0.1635495762395427  0.4971522815841113   T   T   T
  0.1635462709674262  0.8364537290322325  0.5549116744215422   T   T   T
  0.8197689572165684  0.1802310427847600  0.6704237935143014   T   T   T
  0.1480672960346321  0.8519327039700793  0.7281886374544037   T   T   T
  0.5161442161822031  0.4838557838241142  0.3527746966437768   T   T   T
  0.4999983206152732  0.5000016793847201  0.5260311597245449   T   T   T
  0.4838576598940446  0.5161423401003069  0.6992840374688343   T   T   T
  0.1885600414505706  0.8114399587251190  0.2949817095209591   T   T   T
  0.8442876815622443  0.1557123184314808  0.4105418240102516   T   T   T
  0.1725512489742875  0.8274487510254070  0.4682864988623572   T   T   T
  0.8274478316331697  0.1725521683670864  0.5837749743675714   T   T   T
  0.1557134004512568  0.8442865995546625  0.6415185785728282   T   T   T
  0.8114420206272795  0.1885579791937635  0.7570747371197187   T   T   T
 -0.0000027042120536  0.0000027041788142  0.0261035726314730   T   T   T
 -0.0015978076391297  0.0015978074973623  0.2321748848558316   T   T   T
  0.6971638039722307  0.3028361960534837  0.1794281322735568   T   T   T
  0.3345075081045520  0.6654924918915259  0.0803835448356843   T   T   T
  0.0015921898150156 -0.0015921896810639  0.8198770911822935   T   T   T
  0.6654777387212323  0.3345222613181531  0.9718277828269534   T   T   T
  0.3028573246876367  0.6971426752891002  0.8726056839588821   T   T   T
 
  0.00000000E+00  0.00000000E+00  0.00000000E+00
  0.00000000E+00  0.00000000E+00  0.00000000E+00
  0.00000000E+00  0.00000000E+00  0.00000000E+00
  0.00000000E+00  0.00000000E+00  0.00000000E+00
  0.00000000E+00  0.00000000E+00  0.00000000E+00
  0.00000000E+00  0.00000000E+00  0.00000000E+00
  0.00000000E+00  0.00000000E+00  0.00000000E+00
  0.00000000E+00  0.00000000E+00  0.00000000E+00
  0.00000000E+00  0.00000000E+00  0.00000000E+00
  0.00000000E+00  0.00000000E+00  0.00000000E+00
  0.00000000E+00  0.00000000E+00  0.00000000E+00
  0.00000000E+00  0.00000000E+00  0.00000000E+00
  0.00000000E+00  0.00000000E+00  0.00000000E+00
  0.00000000E+00  0.00000000E+00  0.00000000E+00
  0.00000000E+00  0.00000000E+00  0.00000000E+00
  0.00000000E+00  0.00000000E+00  0.00000000E+00
  0.00000000E+00  0.00000000E+00  0.00000000E+00
  0.00000000E+00  0.00000000E+00  0.00000000E+00
  0.00000000E+00  0.00000000E+00  0.00000000E+00
  0.00000000E+00  0.00000000E+00  0.00000000E+00
  0.00000000E+00  0.00000000E+00  0.00000000E+00
  0.00000000E+00  0.00000000E+00  0.00000000E+00
  0.00000000E+00  0.00000000E+00  0.00000000E+00
  0.00000000E+00  0.00000000E+00  0.00000000E+00
  0.00000000E+00  0.00000000E+00  0.00000000E+00
  0.00000000E+00  0.00000000E+00  0.00000000E+00
