MgO19                                   
   1.00000000000000     
     2.1244360000000002   -2.1244350000000001    0.0000000000000000
     0.0000000000000000    2.1244360000000002   -2.1244360000000002
    21.4068669999999983   21.4068669999999983   21.4068669999999983
   O    Mg
    10     9
Selective dynamics
Direct
 -0.0000000000000000 -0.0000000000000000  0.0256898180962942   T   T   T
  0.3333330000000032  0.6666669999999968  0.0931476513673009   T   T   T
 -0.0000000000000000  0.0000000000000000  0.2254280801912969   T   T   T
  0.3333330000000032  0.6666669999999968  0.2916129999999981   F   F   F
  0.0000000000000000  0.0000000000000000  0.4239340000000027   F   F   F
  0.3333330000000032  0.6666669999999968  0.4900939999999991   F   F   F
  0.0000000000000000  0.0000000000000000  0.6224149999999966   F   F   F
  0.6666669999999968  0.3333330000000032  0.1593134821408983   T   T   T
  0.6666669999999968  0.3333330000000032  0.3577730000000017   F   F   F
  0.6666669999999968  0.3333330000000032  0.5562550000000002   F   F   F
 -0.0000000000000000  0.0000000000000000  0.1263158112573932   T   T   T
  0.0000000000000000  0.0000000000000000  0.3246930000000035   F   F   F
  0.0000000000000000  0.0000000000000000  0.5231750000000019   F   F   F
  0.6666669999999968  0.3333330000000032  0.0602104155787851   T   T   T
  0.6666669999999968  0.3333330000000032  0.2585320000000024   F   F   F
  0.6666669999999968  0.3333330000000032  0.4570140000000009   F   F   F
  0.3333330000000032  0.6666669999999968  0.1924500513142826   T   T   T
  0.3333330000000032  0.6666669999999968  0.3908529999999999   F   F   F
  0.3333330000000032  0.6666669999999968  0.5893349999999984   F   F   F
 
  0.00000000E+00  0.00000000E+00  0.00000000E+00
  0.00000000E+00  0.00000000E+00  0.00000000E+00
  0.00000000E+00  0.00000000E+00  0.00000000E+00
  0.00000000E+00  0.00000000E+00  0.00000000E+00
  0.00000000E+00  0.00000000E+00  0.00000000E+00
  0.00000000E+00  0.00000000E+00  0.00000000E+00
  0.00000000E+00  0.00000000E+00  0.00000000E+00
  0.00000000E+00  0.00000000E+00  0.00000000E+00
  0.00000000E+00  0.00000000E+00  0.00000000E+00
  0.00000000E+00  0.00000000E+00  0.00000000E+00
  0.00000000E+00  0.00000000E+00  0.00000000E+00
  0.00000000E+00  0.00000000E+00  0.00000000E+00
  0.00000000E+00  0.00000000E+00  0.00000000E+00
  0.00000000E+00  0.00000000E+00  0.00000000E+00
  0.00000000E+00  0.00000000E+00  0.00000000E+00
  0.00000000E+00  0.00000000E+00  0.00000000E+00
  0.00000000E+00  0.00000000E+00  0.00000000E+00
  0.00000000E+00  0.00000000E+00  0.00000000E+00
  0.00000000E+00  0.00000000E+00  0.00000000E+00
