MgO19 
1.0 
2.124436 -2.124435 0.000000 
0.000000 2.124436 -2.124436 
21.406867 21.406867 21.406867 
O Mg 
10 9 
Selective Dynamics
Direct 
1.000000 0.000000 0.026970 T T T 
0.333333 0.666667 0.093131 T T T 
1.000000 0.000000 0.225452 T T T 
0.333333 0.666667 0.291613 F F F 
1.000000 0.000000 0.423934 F F F 
0.333333 0.666667 0.490094 F F F 
1.000000 0.000000 0.622415 F F F 
0.666667 0.333333 0.159291 T T T 
0.666667 0.333333 0.357773 F F F 
0.666667 0.333333 0.556255 F F F 
0.000000 0.000000 0.126211 T T T 
0.000000 0.000000 0.324693 F F F 
-0.000000 0.000000 0.523175 F F F 
0.666667 0.333333 0.060051 T T T 
0.666667 0.333333 0.258532 F F F 
0.666667 0.333333 0.457014 F F F 
0.333333 0.666667 0.192372 T T T 
0.333333 0.666667 0.390853 F F F 
0.333333 0.666667 0.589335 F F F 

