MgO7 
1.0 
2.124436 -2.124435 -0.000000 
0.000000 2.124436 -2.124436 
12.909125 12.909125 12.909125 
O Mg 
3 4 
Selective Dynamics
Direct 
1.000000 0.000000 0.209293 F F F 
0.333333 0.666667 0.319005 F F F 
0.666667 0.333333 0.099580 T T T 
-0.000000 -0.000000 0.044724 T T T 
0.000000 -0.000000 0.373861 F F F 
0.666667 0.333333 0.264149 F F F 
0.333333 0.666667 0.154437 T T T 
