Layer                                   
   1.00000000000000     
     2.5922013181189856   -1.4966076734688392    0.0000000000000000
     0.0000000000000000    2.9932153469376783    0.0000000000000000
-0.0000000000000002 0.0000000000000000 47.9850851016141643
   O    Mg   Al
    10    11     7
Selective dynamics
Direct
 -0.0000000000000000 -0.0000000000000000  0.2840409071042660   T   T   T
  0.3333330000000032  0.6666669999999968  0.3374105280472869   T   T   T
  0.0000000000000000  0.0000000000000000  0.4442158653196452   T   T   T
  0.3333330000000032  0.6666669999999968  0.4976343074826346   T   T   T
 -0.0000000000000000 -0.0000000000000000  0.6044213256762739   T   T   T
  0.3333330000000032  0.6666669999999968  0.6578442820075344   T   T   T
  0.0000000000000000  0.0000000000000000  0.7646042850482471   T   T   T
  0.6666669999999968  0.3333330000000032  0.3907959540718947   T   T   T
  0.6666669999999968  0.3333330000000032  0.5510012401309152   T   T   T
  0.6666669999999968  0.3333330000000032  0.7112326919070129   T   T   T
 -0.0000000000000000  0.0000000000000000  0.3640977087978994   T   T   T
 -0.0000000000000000  0.0000000000000000  0.5243182338375902   T   T   T
 -0.0000000000000000  0.0000000000000000  0.6845435616987603   T   T   T
  0.6666669999999968  0.3333330000000032  0.3106934039755937   T   T   T
  0.6666669999999968  0.3333330000000032  0.4709333123458695   T   T   T
  0.6666669999999968  0.3333330000000032  0.6311338788531782   T   T   T
  0.6666669999999968  0.3333330000000032  0.7922661989083810   T   T   T
  0.3333330000000032  0.6666669999999968  0.2563791351353031   T   T   T
  0.3333330000000032  0.6666669999999968  0.4175054973925316   T   T   T
  0.3333330000000032  0.6666669999999968  0.5777038254960885   T   T   T
  0.3333330000000032  0.6666669999999968  0.7379498650206788   T   T   T
 -0.0000000000000000  0.0000000000000000  0.0243195811998618   T   T   T
 -0.0000000000000000  0.0000000000000000  0.1962240433240360   T   T   T
  0.6666669999999968  0.3333330000000032  0.1361676634471065   T   T   T
  0.3333330000000032  0.6666669999999968  0.0778898363582064   T   T   T
 -0.0000000000000000  0.0000000000000000  0.8524222140009748   T   T   T
  0.6666669999999968  0.3333330000000032  0.9707484325690567   T   T   T
  0.3333330000000032  0.6666669999999968  0.9124732208432008   T   T   T
 
  0.00000000E+00  0.00000000E+00  0.00000000E+00
  0.00000000E+00  0.00000000E+00  0.00000000E+00
  0.00000000E+00  0.00000000E+00  0.00000000E+00
  0.00000000E+00  0.00000000E+00  0.00000000E+00
  0.00000000E+00  0.00000000E+00  0.00000000E+00
  0.00000000E+00  0.00000000E+00  0.00000000E+00
  0.00000000E+00  0.00000000E+00  0.00000000E+00
  0.00000000E+00  0.00000000E+00  0.00000000E+00
  0.00000000E+00  0.00000000E+00  0.00000000E+00
  0.00000000E+00  0.00000000E+00  0.00000000E+00
  0.00000000E+00  0.00000000E+00  0.00000000E+00
  0.00000000E+00  0.00000000E+00  0.00000000E+00
  0.00000000E+00  0.00000000E+00  0.00000000E+00
  0.00000000E+00  0.00000000E+00  0.00000000E+00
  0.00000000E+00  0.00000000E+00  0.00000000E+00
  0.00000000E+00  0.00000000E+00  0.00000000E+00
  0.00000000E+00  0.00000000E+00  0.00000000E+00
  0.00000000E+00  0.00000000E+00  0.00000000E+00
  0.00000000E+00  0.00000000E+00  0.00000000E+00
  0.00000000E+00  0.00000000E+00  0.00000000E+00
  0.00000000E+00  0.00000000E+00  0.00000000E+00
  0.00000000E+00  0.00000000E+00  0.00000000E+00
  0.00000000E+00  0.00000000E+00  0.00000000E+00
  0.00000000E+00  0.00000000E+00  0.00000000E+00
  0.00000000E+00  0.00000000E+00  0.00000000E+00
  0.00000000E+00  0.00000000E+00  0.00000000E+00
  0.00000000E+00  0.00000000E+00  0.00000000E+00
  0.00000000E+00  0.00000000E+00  0.00000000E+00
