Layer                                   
   1.00000000000000     
     2.5922013181189856   -1.4966076734688392    0.0000000000000000
     0.0000000000000000    2.9932153469376783    0.0000000000000000
    -0.0000000000000002    0.0000000000000000   43.2722642434199187
   O    Mg   Al
    10    11     7
Selective dynamics
Direct
  0.0000000000000000  0.0000000000000000  0.2669708131721415   T   T   T
  0.3333330000000032  0.6666669999999968  0.3240973673687272   T   T   T
  0.0000000000000000  0.0000000000000000  0.4384508708573818   T   T   T
  0.3333330000000032  0.6666669999999968  0.4956833211974715   T   T   T
  0.0000000000000000  0.0000000000000000  0.6101725363440778   T   T   T
  0.3333330000000032  0.6666669999999968  0.6673686193857039   T   T   T
  0.0000000000000000  0.0000000000000000  0.7816685680016103   T   T   T
  0.6666669999999968  0.3333330000000032  0.3812608111251930   T   T   T
  0.6666669999999968  0.3333330000000032  0.5529333814761449   T   T   T
  0.6666669999999968  0.3333330000000032  0.7245344634917343   T   T   T
  0.0000000000000000  0.0000000000000000  0.3526758823296446   T   T   T
  0.0000000000000000  0.0000000000000000  0.5243101932919964   T   T   T
  0.0000000000000000  0.0000000000000000  0.6959564220409618   T   T   T
  0.6666669999999968  0.3333330000000032  0.2955083777456790   T   T   T
  0.6666669999999968  0.3333330000000032  0.4670625019279037   T   T   T
  0.6666669999999968  0.3333330000000032  0.6387820959025027   T   T   T
  0.6666669999999968  0.3333330000000032  0.8112093942398406   T   T   T
  0.3333330000000032  0.6666669999999968  0.2374312765448656   T   T   T
  0.3333330000000032  0.6666669999999968  0.4098469648515688   T   T   T
  0.3333330000000032  0.6666669999999968  0.5815608293968713   T   T   T
  0.3333330000000032  0.6666669999999968  0.7531250475659564   T   T   T
  0.0000000000000000  0.0000000000000000  0.0243470296835947   T   T   T
  0.0000000000000000  0.0000000000000000  0.1809066353056237   T   T   T
  0.6666669999999968  0.3333330000000032  0.1287870061175371   T   T   T
  0.3333330000000032  0.6666669999999968  0.0765038866790924   T   T   T
  0.0000000000000000  0.0000000000000000  0.8677565914745304   T   T   T
  0.6666669999999968  0.3333330000000032  0.9721823984139083   T   T   T
  0.3333330000000032  0.6666669999999968  0.9198777140677787   T   T   T
 
  0.00000000E+00  0.00000000E+00  0.00000000E+00
  0.00000000E+00  0.00000000E+00  0.00000000E+00
  0.00000000E+00  0.00000000E+00  0.00000000E+00
  0.00000000E+00  0.00000000E+00  0.00000000E+00
  0.00000000E+00  0.00000000E+00  0.00000000E+00
  0.00000000E+00  0.00000000E+00  0.00000000E+00
  0.00000000E+00  0.00000000E+00  0.00000000E+00
  0.00000000E+00  0.00000000E+00  0.00000000E+00
  0.00000000E+00  0.00000000E+00  0.00000000E+00
  0.00000000E+00  0.00000000E+00  0.00000000E+00
  0.00000000E+00  0.00000000E+00  0.00000000E+00
  0.00000000E+00  0.00000000E+00  0.00000000E+00
  0.00000000E+00  0.00000000E+00  0.00000000E+00
  0.00000000E+00  0.00000000E+00  0.00000000E+00
  0.00000000E+00  0.00000000E+00  0.00000000E+00
  0.00000000E+00  0.00000000E+00  0.00000000E+00
  0.00000000E+00  0.00000000E+00  0.00000000E+00
  0.00000000E+00  0.00000000E+00  0.00000000E+00
  0.00000000E+00  0.00000000E+00  0.00000000E+00
  0.00000000E+00  0.00000000E+00  0.00000000E+00
  0.00000000E+00  0.00000000E+00  0.00000000E+00
  0.00000000E+00  0.00000000E+00  0.00000000E+00
  0.00000000E+00  0.00000000E+00  0.00000000E+00
  0.00000000E+00  0.00000000E+00  0.00000000E+00
  0.00000000E+00  0.00000000E+00  0.00000000E+00
  0.00000000E+00  0.00000000E+00  0.00000000E+00
  0.00000000E+00  0.00000000E+00  0.00000000E+00
  0.00000000E+00  0.00000000E+00  0.00000000E+00
