Layer                                   
   1.00000000000000     
     2.5922013181189856   -1.4966076734688392    0.0000000000000000
     0.0000000000000000    2.9932153469376783    0.0000000000000000
    -0.0000000000000002    0.0000000000000000   48.4135233614500038
   O    Mg   Al
    10    11     7
Selective dynamics
Direct
 -0.0000000000000000 -0.0000000000000000  0.2951615942887275   T   T   T
  0.3333330000000032  0.6666669999999968  0.3460374217763177   T   T   T
  0.0000000000000000  0.0000000000000000  0.4480074382836006   T   T   T
  0.3333330000000032  0.6666669999999968  0.4988834613094683   T   T   T
 -0.0000000000000000 -0.0000000000000000  0.6006297527123255   T   T   T
  0.3333330000000032  0.6666669999999968  0.6515965053166756   T   T   T
  0.0000000000000000  0.0000000000000000  0.7534835978637856   T   T   T
  0.6666669999999968  0.3333330000000032  0.3970437307627538   T   T   T
  0.6666669999999968  0.3333330000000032  0.5497520863040809   T   T   T
  0.6666669999999968  0.3333330000000032  0.7026057981779829   T   T   T
  0.0000000000000000  0.0000000000000000  0.3715085266830440   T   T   T
  0.0000000000000000  0.0000000000000000  0.5243182338375902   T   T   T
  0.0000000000000000  0.0000000000000000  0.6771327438136154   T   T   T
  0.6666669999999968  0.3333330000000032  0.3205293088571193   T   T   T
  0.6666669999999968  0.3333330000000032  0.4734461844041969   T   T   T
  0.6666669999999968  0.3333330000000032  0.6261153672291327   T   T   T
  0.6666669999999968  0.3333330000000032  0.7799549037615384   T   T   T
  0.3333330000000032  0.6666669999999968  0.2686904302821453   T   T   T
  0.3333330000000032  0.6666669999999968  0.4225240090165769   T   T   T
  0.3333330000000032  0.6666669999999968  0.5751909534377602   T   T   T
  0.3333330000000032  0.6666669999999968  0.7281139601391527   T   T   T
  0.0000000000000000  0.0000000000000000  0.0243195811998618   T   T   T
  0.0000000000000000  0.0000000000000000  0.2189209568393127   T   T   T
  0.6666669999999968  0.3333330000000032  0.1726618849107008   T   T   T
  0.3333330000000032  0.6666669999999968  0.0714497411196649   T   T   T
  0.0000000000000000  0.0000000000000000  0.8297253004856985   T   T   T
  0.6666669999999968  0.3333330000000032  0.9771885278075985   T   T   T
  0.3333330000000032  0.6666669999999968  0.8759789993796063   T   T   T
 
  0.00000000E+00  0.00000000E+00  0.00000000E+00
  0.00000000E+00  0.00000000E+00  0.00000000E+00
  0.00000000E+00  0.00000000E+00  0.00000000E+00
  0.00000000E+00  0.00000000E+00  0.00000000E+00
  0.00000000E+00  0.00000000E+00  0.00000000E+00
  0.00000000E+00  0.00000000E+00  0.00000000E+00
  0.00000000E+00  0.00000000E+00  0.00000000E+00
  0.00000000E+00  0.00000000E+00  0.00000000E+00
  0.00000000E+00  0.00000000E+00  0.00000000E+00
  0.00000000E+00  0.00000000E+00  0.00000000E+00
  0.00000000E+00  0.00000000E+00  0.00000000E+00
  0.00000000E+00  0.00000000E+00  0.00000000E+00
  0.00000000E+00  0.00000000E+00  0.00000000E+00
  0.00000000E+00  0.00000000E+00  0.00000000E+00
  0.00000000E+00  0.00000000E+00  0.00000000E+00
  0.00000000E+00  0.00000000E+00  0.00000000E+00
  0.00000000E+00  0.00000000E+00  0.00000000E+00
  0.00000000E+00  0.00000000E+00  0.00000000E+00
  0.00000000E+00  0.00000000E+00  0.00000000E+00
  0.00000000E+00  0.00000000E+00  0.00000000E+00
  0.00000000E+00  0.00000000E+00  0.00000000E+00
  0.00000000E+00  0.00000000E+00  0.00000000E+00
  0.00000000E+00  0.00000000E+00  0.00000000E+00
  0.00000000E+00  0.00000000E+00  0.00000000E+00
  0.00000000E+00  0.00000000E+00  0.00000000E+00
  0.00000000E+00  0.00000000E+00  0.00000000E+00
  0.00000000E+00  0.00000000E+00  0.00000000E+00
  0.00000000E+00  0.00000000E+00  0.00000000E+00
