Layer                                   
   1.00000000000000     
     2.5922013181189856   -1.4966076734688392    0.0000000000000000
     0.0000000000000000    2.9932153469376783    0.0000000000000000
-0.0000000000000002 0.0000000000000000 48.4135233614500050
   O    Mg   Al
    10    11     7
Selective dynamics
Direct
  0.0000000000000000  0.0000000000000000  0.2860866646827516   T   T   T
  0.3333330000000032  0.6666669999999968  0.3389804202120910   T   T   T
  0.0000000000000000  0.0000000000000000  0.4448692713519341   T   T   T
  0.3333330000000032  0.6666669999999968  0.4978327616631195   T   T   T
 -0.0000000000000000 -0.0000000000000000  0.6037679196439920   T   T   T
  0.3333330000000032  0.6666669999999968  0.6567186544879200   T   T   T
  0.0000000000000000 -0.0000000000000000  0.7625585274697614   T   T   T
  0.6666669999999968  0.3333330000000032  0.3919215815915087   T   T   T
  0.6666669999999968  0.3333330000000032  0.5508027859504302   T   T   T
  0.6666669999999968  0.3333330000000032  0.7096627997422094   T   T   T
 -0.0000000000000000 -0.0000000000000000  0.3654629531588591   T   T   T
 -0.0000000000000000 -0.0000000000000000  0.5243182338375902   T   T   T
 -0.0000000000000000  0.0000000000000000  0.6831783173378010   T   T   T
  0.6666669999999968  0.3333330000000032  0.3125145585790814   T   T   T
  0.6666669999999968  0.3333330000000032  0.4713546853194739   T   T   T
  0.6666669999999968  0.3333330000000032  0.6302423954962749   T   T   T
  0.6666669999999968  0.3333330000000032  0.7899900933492973   T   T   T
  0.3333330000000032  0.6666669999999968  0.2586552406943868   T   T   T
  0.3333330000000032  0.6666669999999968  0.4183969807494351   T   T   T
  0.3333330000000032  0.6666669999999968  0.5772824525224837   T   T   T
  0.3333330000000032  0.6666669999999968  0.7361287104171912   T   T   T
 -0.0000000000000000 -0.0000000000000000  0.0243195811998618   T   T   T
 -0.0000000000000000 -0.0000000000000000  0.1986264481192703   T   T   T
  0.6666669999999968  0.3333330000000032  0.1383297228978973   T   T   T
  0.3333330000000032  0.6666669999999968  0.0795043561889019   T   T   T
 -0.0000000000000000 -0.0000000000000000  0.8500198092057404   T   T   T
  0.6666669999999968  0.3333330000000032  0.9691339127383614   T   T   T
  0.3333330000000032  0.6666669999999968  0.9103111613924104   T   T   T
 
  0.00000000E+00  0.00000000E+00  0.00000000E+00
  0.00000000E+00  0.00000000E+00  0.00000000E+00
  0.00000000E+00  0.00000000E+00  0.00000000E+00
  0.00000000E+00  0.00000000E+00  0.00000000E+00
  0.00000000E+00  0.00000000E+00  0.00000000E+00
  0.00000000E+00  0.00000000E+00  0.00000000E+00
  0.00000000E+00  0.00000000E+00  0.00000000E+00
  0.00000000E+00  0.00000000E+00  0.00000000E+00
  0.00000000E+00  0.00000000E+00  0.00000000E+00
  0.00000000E+00  0.00000000E+00  0.00000000E+00
  0.00000000E+00  0.00000000E+00  0.00000000E+00
  0.00000000E+00  0.00000000E+00  0.00000000E+00
  0.00000000E+00  0.00000000E+00  0.00000000E+00
  0.00000000E+00  0.00000000E+00  0.00000000E+00
  0.00000000E+00  0.00000000E+00  0.00000000E+00
  0.00000000E+00  0.00000000E+00  0.00000000E+00
  0.00000000E+00  0.00000000E+00  0.00000000E+00
  0.00000000E+00  0.00000000E+00  0.00000000E+00
  0.00000000E+00  0.00000000E+00  0.00000000E+00
  0.00000000E+00  0.00000000E+00  0.00000000E+00
  0.00000000E+00  0.00000000E+00  0.00000000E+00
  0.00000000E+00  0.00000000E+00  0.00000000E+00
  0.00000000E+00  0.00000000E+00  0.00000000E+00
  0.00000000E+00  0.00000000E+00  0.00000000E+00
  0.00000000E+00  0.00000000E+00  0.00000000E+00
  0.00000000E+00  0.00000000E+00  0.00000000E+00
  0.00000000E+00  0.00000000E+00  0.00000000E+00
  0.00000000E+00  0.00000000E+00  0.00000000E+00
