Layer                                   
   1.00000000000000     
     2.5922013181189856   -1.4966076734688392    0.0000000000000000
     0.0000000000000000    2.9932153469376783    0.0000000000000000
-0.0000000000000002 0.0000000000000000 44.9860172827632790
   O    Mg   Al
    10    11     7
Selective dynamics
Direct
  0.0000000000000000 -0.0000000000000000  0.2705363525106809   T   T   T
  0.3333330000000032  0.6666669999999968  0.3268544023992582   T   T   T
  0.0000000000000000 -0.0000000000000000  0.4396493745029963   T   T   T
  0.3333330000000032  0.6666669999999968  0.4961016537928449   T   T   T
  0.0000000000000000 -0.0000000000000000  0.6089873324778601   T   T   T
  0.3333330000000032  0.6666669999999968  0.6654191691913198   T   T   T
  0.0000000000000000 -0.0000000000000000  0.7781058966825068   T   T   T
  0.6666669999999968  0.3333330000000032  0.3832200501872620   T   T   T
  0.6666669999999968  0.3333330000000032  0.5525331055654287   T   T   T
  0.6666669999999968  0.3333330000000032  0.7217923866883361   T   T   T
  0.0000000000000000 -0.0000000000000000  0.3550447274679525   T   T   T
  0.0000000000000000 -0.0000000000000000  0.5243193572317896   T   T   T
  0.0000000000000000 -0.0000000000000000  0.6935915740199308   T   T   T
  0.6666669999999968  0.3333330000000032  0.2986727508813912   T   T   T
  0.6666669999999968  0.3333330000000032  0.4678858001058407   T   T   T
  0.6666669999999968  0.3333330000000032  0.6371939146170008   T   T   T
  0.6666669999999968  0.3333330000000032  0.8072549597107410   T   T   T
  0.3333330000000032  0.6666669999999968  0.2413933759050985   T   T   T
  0.3333330000000032  0.6666669999999968  0.4114432683289151   T   T   T
  0.3333330000000032  0.6666669999999968  0.5807528354191842   T   T   T
  0.3333330000000032  0.6666669999999968  0.7499658480357545   T   T   T
  0.0000000000000000 -0.0000000000000000  0.0243207038105615   T   T   T
  0.0000000000000000 -0.0000000000000000  0.1840869950894409   T   T   T
  0.6666669999999968  0.3333330000000032  0.1306202462151319   T   T   T
  0.3333330000000032  0.6666669999999968  0.0773805523104612   T   T   T
  0.0000000000000000 -0.0000000000000000  0.8645578279006190   T   T   T
  0.6666669999999968  0.3333330000000032  0.9712622617507107   T   T   T
  0.3333330000000032  0.6666669999999968  0.9180242772010380   T   T   T
 
  0.00000000E+00  0.00000000E+00  0.00000000E+00
  0.00000000E+00  0.00000000E+00  0.00000000E+00
  0.00000000E+00  0.00000000E+00  0.00000000E+00
  0.00000000E+00  0.00000000E+00  0.00000000E+00
  0.00000000E+00  0.00000000E+00  0.00000000E+00
  0.00000000E+00  0.00000000E+00  0.00000000E+00
  0.00000000E+00  0.00000000E+00  0.00000000E+00
  0.00000000E+00  0.00000000E+00  0.00000000E+00
  0.00000000E+00  0.00000000E+00  0.00000000E+00
  0.00000000E+00  0.00000000E+00  0.00000000E+00
  0.00000000E+00  0.00000000E+00  0.00000000E+00
  0.00000000E+00  0.00000000E+00  0.00000000E+00
  0.00000000E+00  0.00000000E+00  0.00000000E+00
  0.00000000E+00  0.00000000E+00  0.00000000E+00
  0.00000000E+00  0.00000000E+00  0.00000000E+00
  0.00000000E+00  0.00000000E+00  0.00000000E+00
  0.00000000E+00  0.00000000E+00  0.00000000E+00
  0.00000000E+00  0.00000000E+00  0.00000000E+00
  0.00000000E+00  0.00000000E+00  0.00000000E+00
  0.00000000E+00  0.00000000E+00  0.00000000E+00
  0.00000000E+00  0.00000000E+00  0.00000000E+00
  0.00000000E+00  0.00000000E+00  0.00000000E+00
  0.00000000E+00  0.00000000E+00  0.00000000E+00
  0.00000000E+00  0.00000000E+00  0.00000000E+00
  0.00000000E+00  0.00000000E+00  0.00000000E+00
  0.00000000E+00  0.00000000E+00  0.00000000E+00
  0.00000000E+00  0.00000000E+00  0.00000000E+00
  0.00000000E+00  0.00000000E+00  0.00000000E+00
