Layer                                   
   1.00000000000000     
     2.5922013181189856   -1.4966076734688392    0.0000000000000000
     0.0000000000000000    2.9932153469376783    0.0000000000000000
    -0.0000000000000002    0.0000000000000000   47.1282085819424807
   O    Mg   Al
    10    11     7
Selective dynamics
Direct
  0.0000000000000000 -0.0000000000000000  0.2825798266697335   T   T   T
  0.3333330000000032  0.6666669999999968  0.3363312681071560   T   T   T
  0.0000000000000000 -0.0000000000000000  0.4437805729168645   T   T   T
  0.3333330000000032  0.6666669999999968  0.4974730300185175   T   T   T
 -0.0000000000000000  0.0000000000000000  0.6048566180790542   T   T   T
  0.3333330000000032  0.6666669999999968  0.6585831562202108   T   T   T
 -0.0000000000000000  0.0000000000000000  0.7660653654827795   T   T   T
  0.6666669999999968  0.3333330000000032  0.3900570798592178   T   T   T
  0.6666669999999968  0.3333330000000032  0.5511625175950328   T   T   T
  0.6666669999999968  0.3333330000000032  0.7123119518471446   T   T   T
  0.0000000000000000 -0.0000000000000000  0.3631767682924879   T   T   T
  0.0000000000000000 -0.0000000000000000  0.5243182338375902   T   T   T
 -0.0000000000000000 -0.0000000000000000  0.6854645022041718   T   T   T
  0.6666669999999968  0.3333330000000032  0.3094136782602661   T   T   T
  0.6666669999999968  0.3333330000000032  0.4706130750833135   T   T   T
  0.6666669999999968  0.3333330000000032  0.6317199984270605   T   T   T
  0.6666669999999968  0.3333330000000032  0.7939305858121586   T   T   T
  0.3333330000000032  0.6666669999999968  0.2547147482315251   T   T   T
  0.3333330000000032  0.6666669999999968  0.4169193778186491   T   T   T
  0.3333330000000032  0.6666669999999968  0.5780240627586439   T   T   T
  0.3333330000000032  0.6666669999999968  0.7392295907360064   T   T   T
  0.0000000000000000 -0.0000000000000000  0.0243195811998618   T   T   T
  0.0000000000000000 -0.0000000000000000  0.1944691458298617   T   T   T
  0.6666669999999968  0.3333330000000032  0.1351036066374503   T   T   T
  0.3333330000000032  0.6666669999999968  0.0777972620719988   T   T   T
  0.0000000000000000 -0.0000000000000000  0.8541771114951494   T   T   T
  0.6666669999999968  0.3333330000000032  0.9708410068552643   T   T   T
  0.3333330000000032  0.6666669999999968  0.9135372776528573   T   T   T
 
  0.00000000E+00  0.00000000E+00  0.00000000E+00
  0.00000000E+00  0.00000000E+00  0.00000000E+00
  0.00000000E+00  0.00000000E+00  0.00000000E+00
  0.00000000E+00  0.00000000E+00  0.00000000E+00
  0.00000000E+00  0.00000000E+00  0.00000000E+00
  0.00000000E+00  0.00000000E+00  0.00000000E+00
  0.00000000E+00  0.00000000E+00  0.00000000E+00
  0.00000000E+00  0.00000000E+00  0.00000000E+00
  0.00000000E+00  0.00000000E+00  0.00000000E+00
  0.00000000E+00  0.00000000E+00  0.00000000E+00
  0.00000000E+00  0.00000000E+00  0.00000000E+00
  0.00000000E+00  0.00000000E+00  0.00000000E+00
  0.00000000E+00  0.00000000E+00  0.00000000E+00
  0.00000000E+00  0.00000000E+00  0.00000000E+00
  0.00000000E+00  0.00000000E+00  0.00000000E+00
  0.00000000E+00  0.00000000E+00  0.00000000E+00
  0.00000000E+00  0.00000000E+00  0.00000000E+00
  0.00000000E+00  0.00000000E+00  0.00000000E+00
  0.00000000E+00  0.00000000E+00  0.00000000E+00
  0.00000000E+00  0.00000000E+00  0.00000000E+00
  0.00000000E+00  0.00000000E+00  0.00000000E+00
  0.00000000E+00  0.00000000E+00  0.00000000E+00
  0.00000000E+00  0.00000000E+00  0.00000000E+00
  0.00000000E+00  0.00000000E+00  0.00000000E+00
  0.00000000E+00  0.00000000E+00  0.00000000E+00
  0.00000000E+00  0.00000000E+00  0.00000000E+00
  0.00000000E+00  0.00000000E+00  0.00000000E+00
  0.00000000E+00  0.00000000E+00  0.00000000E+00
