Layer                                   
   1.00000000000000     
     2.5922013181189856   -1.4966076734688392    0.0000000000000000
     0.0000000000000000    2.9932153469376783    0.0000000000000000
-0.0000000000000002 0.0000000000000000 47.1282085819424828
   O    Mg   Al
    10    11     7
Selective dynamics
Direct
  0.0000000000000000 -0.0000000000000000  0.2802767323552444   T   T   T
  0.3333330000000032  0.6666669999999968  0.3344678496213506   T   T   T
  0.0000000000000000  0.0000000000000000  0.4429438405196102   T   T   T
  0.3333330000000032  0.6666669999999968  0.4971922755196360   T   T   T
 -0.0000000000000000 -0.0000000000000000  0.6056933504763083   T   T   T
  0.3333330000000032  0.6666669999999968  0.6599401015745526   T   T   T
 -0.0000000000000000  0.0000000000000000  0.7683684597972684   T   T   T
  0.6666669999999968  0.3333330000000032  0.3887001345048756   T   T   T
  0.6666669999999968  0.3333330000000032  0.5514432720939142   T   T   T
  0.6666669999999968  0.3333330000000032  0.7141753703329492   T   T   T
  0.0000000000000000 -0.0000000000000000  0.3615934960084048   T   T   T
  0.0000000000000000 -0.0000000000000000  0.5243182338375902   T   T   T
  0.0000000000000000  0.0000000000000000  0.6870477744882549   T   T   T
  0.6666669999999968  0.3333330000000032  0.3073769813715663   T   T   T
  0.6666669999999968  0.3333330000000032  0.4700749254693565   T   T   T
  0.6666669999999968  0.3333330000000032  0.6328083373841863   T   T   T
  0.6666669999999968  0.3333330000000032  0.7964318300246543   T   T   T
  0.3333330000000032  0.6666669999999968  0.2522135040190299   T   T   T
  0.3333330000000032  0.6666669999999968  0.4158310388615237   T   T   T
  0.3333330000000032  0.6666669999999968  0.5785622123726010   T   T   T
  0.3333330000000032  0.6666669999999968  0.7412662876247068   T   T   T
  0.0000000000000000 -0.0000000000000000  0.0243195811998618   T   T   T
  0.0000000000000000 -0.0000000000000000  0.1934479321279274   T   T   T
  0.6666669999999968  0.3333330000000032  0.1353360905682296   T   T   T
  0.3333330000000032  0.6666669999999968  0.0786289455682850   T   T   T
  0.0000000000000000 -0.0000000000000000  0.8551983251970835   T   T   T
  0.6666669999999968  0.3333330000000032  0.9700093233589783   T   T   T
  0.3333330000000032  0.6666669999999968  0.9133047937220778   T   T   T
 
  0.00000000E+00  0.00000000E+00  0.00000000E+00
  0.00000000E+00  0.00000000E+00  0.00000000E+00
  0.00000000E+00  0.00000000E+00  0.00000000E+00
  0.00000000E+00  0.00000000E+00  0.00000000E+00
  0.00000000E+00  0.00000000E+00  0.00000000E+00
  0.00000000E+00  0.00000000E+00  0.00000000E+00
  0.00000000E+00  0.00000000E+00  0.00000000E+00
  0.00000000E+00  0.00000000E+00  0.00000000E+00
  0.00000000E+00  0.00000000E+00  0.00000000E+00
  0.00000000E+00  0.00000000E+00  0.00000000E+00
  0.00000000E+00  0.00000000E+00  0.00000000E+00
  0.00000000E+00  0.00000000E+00  0.00000000E+00
  0.00000000E+00  0.00000000E+00  0.00000000E+00
  0.00000000E+00  0.00000000E+00  0.00000000E+00
  0.00000000E+00  0.00000000E+00  0.00000000E+00
  0.00000000E+00  0.00000000E+00  0.00000000E+00
  0.00000000E+00  0.00000000E+00  0.00000000E+00
  0.00000000E+00  0.00000000E+00  0.00000000E+00
  0.00000000E+00  0.00000000E+00  0.00000000E+00
  0.00000000E+00  0.00000000E+00  0.00000000E+00
  0.00000000E+00  0.00000000E+00  0.00000000E+00
  0.00000000E+00  0.00000000E+00  0.00000000E+00
  0.00000000E+00  0.00000000E+00  0.00000000E+00
  0.00000000E+00  0.00000000E+00  0.00000000E+00
  0.00000000E+00  0.00000000E+00  0.00000000E+00
  0.00000000E+00  0.00000000E+00  0.00000000E+00
  0.00000000E+00  0.00000000E+00  0.00000000E+00
  0.00000000E+00  0.00000000E+00  0.00000000E+00
