Layer                                   
   1.00000000000000     
     2.6004576726853683   -1.5013744842201957    0.0000000000000000
     0.0000000000000000    3.0027489684403914    0.0000000000000000
     0.0000000000000007   -0.0000000000000001   39.3134177939689380
   O    Mg   Al
    10     9     7
Selective dynamics
Direct
  0.0000000000000000  0.0000000000000000  0.2437136106249982   T   T   T
  0.3333330000000032  0.6666669999999968  0.3045180264367024   T   T   T
  0.0000000000000000 -0.0000000000000000  0.4311471518748816   T   T   T
  0.3333330000000032  0.6666669999999968  0.4943986683686270   T   T   T
  0.0000000000000000 -0.0000000000000000  0.6209352026145789   T   T   T
  0.3333330000000032  0.6666669999999968  0.6842486435243028   T   T   T
  0.0000000000000000 -0.0000000000000000  0.8083468270513976   T   T   T
  0.6666669999999968  0.3333330000000032  0.3678199735773262   T   T   T
  0.6666669999999968  0.3333330000000032  0.5576931374960812   T   T   T
  0.6666669999999968  0.3333330000000032  0.7475412352316899   T   T   T
  0.0000000000000000 -0.0000000000000000  0.3361683744053400   T   T   T
  0.0000000000000000 -0.0000000000000000  0.5260316530184088   T   T   T
  0.0000000000000000 -0.0000000000000000  0.7159100384842770   T   T   T
  0.6666669999999968  0.3333330000000032  0.2727849667635131   T   T   T
  0.6666669999999968  0.3333330000000032  0.4627582886480490   T   T   T
  0.6666669999999968  0.3333330000000032  0.6525987253305530   T   T   T
  0.3333330000000032  0.6666669999999968  0.3994699159136517   T   T   T
  0.3333330000000032  0.6666669999999968  0.5893072442827276   T   T   T
  0.3333330000000032  0.6666669999999968  0.7792896780489588   T   T   T
  0.0000000000000000 -0.0000000000000000  0.0260474938732441   T   T   T
  0.0000000000000000 -0.0000000000000000  0.1997224593460560   T   T   T
  0.6666669999999968  0.3333330000000032  0.1427794935855110   T   T   T
  0.3333330000000032  0.6666669999999968  0.0841019162040776   T   T   T
  0.0000000000000000 -0.0000000000000000  0.8523461746292212   T   T   T
  0.6666669999999968  0.3333330000000032  0.9679894382494970   T   T   T
  0.3333330000000032  0.6666669999999968  0.9092986624163484   T   T   T
 
  0.00000000E+00  0.00000000E+00  0.00000000E+00
  0.00000000E+00  0.00000000E+00  0.00000000E+00
  0.00000000E+00  0.00000000E+00  0.00000000E+00
  0.00000000E+00  0.00000000E+00  0.00000000E+00
  0.00000000E+00  0.00000000E+00  0.00000000E+00
  0.00000000E+00  0.00000000E+00  0.00000000E+00
  0.00000000E+00  0.00000000E+00  0.00000000E+00
  0.00000000E+00  0.00000000E+00  0.00000000E+00
  0.00000000E+00  0.00000000E+00  0.00000000E+00
  0.00000000E+00  0.00000000E+00  0.00000000E+00
  0.00000000E+00  0.00000000E+00  0.00000000E+00
  0.00000000E+00  0.00000000E+00  0.00000000E+00
  0.00000000E+00  0.00000000E+00  0.00000000E+00
  0.00000000E+00  0.00000000E+00  0.00000000E+00
  0.00000000E+00  0.00000000E+00  0.00000000E+00
  0.00000000E+00  0.00000000E+00  0.00000000E+00
  0.00000000E+00  0.00000000E+00  0.00000000E+00
  0.00000000E+00  0.00000000E+00  0.00000000E+00
  0.00000000E+00  0.00000000E+00  0.00000000E+00
  0.00000000E+00  0.00000000E+00  0.00000000E+00
  0.00000000E+00  0.00000000E+00  0.00000000E+00
  0.00000000E+00  0.00000000E+00  0.00000000E+00
  0.00000000E+00  0.00000000E+00  0.00000000E+00
  0.00000000E+00  0.00000000E+00  0.00000000E+00
  0.00000000E+00  0.00000000E+00  0.00000000E+00
  0.00000000E+00  0.00000000E+00  0.00000000E+00
