MgO(1 1 1 (2)                           
   1.00000000000000     
     2.1244360000000002   -2.1244360000000002    0.0000000000000000
     0.0000000000000000    2.1244360000000002   -2.1244360000000002
    21.4068669999999983   21.4068669999999983   21.4068669999999983
   O    Mg
     9    10
Selective dynamics
Direct
  0.5000000000000000  0.5000000000000000  0.1263685938920550   T   T   T
  0.5000000000000000  0.5000000000000000  0.3246930000000035   T   T   T
  0.5000000000000000  0.5000000000000000  0.5230174061079450   T   T   T
  0.1666669999999968  0.8333330000000032  0.0602932326828348   T   T   T
  0.8333330000000032  0.1666669999999968  0.1925283320273217   T   T   T
  0.1666669999999968  0.8333330000000032  0.2586182182937188   T   T   T
  0.8333330000000032  0.1666669999999968  0.3907667817062835   T   T   T
  0.1666669999999968  0.8333330000000032  0.4568576679726781   T   T   T
  0.8333330000000032  0.1666669999999968  0.5890927673171649   T   T   T
  0.5000000000000000  0.5000000000000000  0.0258368908019594   T   T   T
  0.5000000000000000  0.5000000000000000  0.2255748699073075   T   T   T
  0.5000000000000000  0.5000000000000000  0.4238111300926922   T   T   T
  0.5000000000000000  0.5000000000000000  0.6235481091980358   T   T   T
  0.8333330000000032  0.1666669999999968  0.0932814039830299   T   T   T
  0.1666669999999968  0.8333330000000032  0.1594551640447666   T   T   T
  0.8333330000000032  0.1666669999999968  0.2916626936666817   T   T   T
  0.1666669999999968  0.8333330000000032  0.3577233063333181   T   T   T
  0.8333330000000032  0.1666669999999968  0.4899298359552355   T   T   T
  0.1666669999999968  0.8333330000000032  0.5561045960169698   T   T   T
 
  0.00000000E+00  0.00000000E+00  0.00000000E+00
  0.00000000E+00  0.00000000E+00  0.00000000E+00
  0.00000000E+00  0.00000000E+00  0.00000000E+00
  0.00000000E+00  0.00000000E+00  0.00000000E+00
  0.00000000E+00  0.00000000E+00  0.00000000E+00
  0.00000000E+00  0.00000000E+00  0.00000000E+00
  0.00000000E+00  0.00000000E+00  0.00000000E+00
  0.00000000E+00  0.00000000E+00  0.00000000E+00
  0.00000000E+00  0.00000000E+00  0.00000000E+00
  0.00000000E+00  0.00000000E+00  0.00000000E+00
  0.00000000E+00  0.00000000E+00  0.00000000E+00
  0.00000000E+00  0.00000000E+00  0.00000000E+00
  0.00000000E+00  0.00000000E+00  0.00000000E+00
  0.00000000E+00  0.00000000E+00  0.00000000E+00
  0.00000000E+00  0.00000000E+00  0.00000000E+00
  0.00000000E+00  0.00000000E+00  0.00000000E+00
  0.00000000E+00  0.00000000E+00  0.00000000E+00
  0.00000000E+00  0.00000000E+00  0.00000000E+00
  0.00000000E+00  0.00000000E+00  0.00000000E+00
