Layer                                   
   1.00000000000000     
     2.5925900057573852   -1.4952752265876454    0.0518951647512091
     0.0013482762012733    2.9928857367913029   -0.0518951489622574
     0.4089676063014350   -0.7083524578609989   42.3039550118651775
   O    Mg   Al
     9    10     7
Selective dynamics
Direct
  0.5559960103061174  0.4440039897017627  0.3471864180462888   T   T   T
  0.5000358662904584  0.4999641337087954  0.5257837952610048   T   T   T
  0.4440504803096926  0.5559495196810135  0.7044004661809328   T   T   T
  0.2416297833017554  0.7583702166867269  0.2876908459236949   T   T   T
  0.8705338447093257  0.1294661552956342  0.4067231172994208   T   T   T
  0.1852303544420467  0.8147696455565463  0.4662688468068560   T   T   T
  0.8148389634160056  0.1851610365841579  0.5853014804050756   T   T   T
  0.1295286075225656  0.8704713924710609  0.6448527454952592   T   T   T
  0.7584019638673585  0.2415980361448843  0.7638982696553621   T   T   T
  0.5847392313294212  0.4152607686761138  0.2572027943465646   T   T   T
  0.5278628492677492  0.4721371507353558  0.4364949754618372   T   T   T
  0.4722019799497466  0.5277980200488110  0.6150879968989552   T   T   T
  0.4152866537972991  0.5847133461943377  0.7943673630577022   T   T   T
  0.8987932747663369  0.1012067252483501  0.3173961932334360   T   T   T
  0.2132322960940832  0.7867677039132780  0.3769556281918280   T   T   T
  0.8426258693886753  0.1573741306133709  0.4960349075416632   T   T   T
  0.1574404383379772  0.8425595616610849  0.5555543148423261   T   T   T
  0.7868227258938131  0.2131772741002893  0.6746224193344437   T   T   T
  0.1012512803038533  0.8987487196833071  0.7341738872346056   T   T   T
  0.9998809966648158  0.0001190033294714  0.0257887447943010   T   T   T
  0.9383635285501110  0.0616364714645402  0.1969484512198880   T   T   T
  0.6255573403502370  0.3744426596243539  0.1394795189877837   T   T   T
  0.3123458102389310  0.6876541897576655  0.0823445043147747   T   T   T
  0.0615865336103377  0.9384134663728151  0.8546291607702801   T   T   T
  0.6874705037216347  0.3125294962895279  0.9692320749172488   T   T   T
  0.3742928135696516  0.6257071864567594  0.9120960797784603   T   T   T
 
  0.00000000E+00  0.00000000E+00  0.00000000E+00
  0.00000000E+00  0.00000000E+00  0.00000000E+00
  0.00000000E+00  0.00000000E+00  0.00000000E+00
  0.00000000E+00  0.00000000E+00  0.00000000E+00
  0.00000000E+00  0.00000000E+00  0.00000000E+00
  0.00000000E+00  0.00000000E+00  0.00000000E+00
  0.00000000E+00  0.00000000E+00  0.00000000E+00
  0.00000000E+00  0.00000000E+00  0.00000000E+00
  0.00000000E+00  0.00000000E+00  0.00000000E+00
  0.00000000E+00  0.00000000E+00  0.00000000E+00
  0.00000000E+00  0.00000000E+00  0.00000000E+00
  0.00000000E+00  0.00000000E+00  0.00000000E+00
  0.00000000E+00  0.00000000E+00  0.00000000E+00
  0.00000000E+00  0.00000000E+00  0.00000000E+00
  0.00000000E+00  0.00000000E+00  0.00000000E+00
  0.00000000E+00  0.00000000E+00  0.00000000E+00
  0.00000000E+00  0.00000000E+00  0.00000000E+00
  0.00000000E+00  0.00000000E+00  0.00000000E+00
  0.00000000E+00  0.00000000E+00  0.00000000E+00
  0.00000000E+00  0.00000000E+00  0.00000000E+00
  0.00000000E+00  0.00000000E+00  0.00000000E+00
  0.00000000E+00  0.00000000E+00  0.00000000E+00
  0.00000000E+00  0.00000000E+00  0.00000000E+00
  0.00000000E+00  0.00000000E+00  0.00000000E+00
  0.00000000E+00  0.00000000E+00  0.00000000E+00
  0.00000000E+00  0.00000000E+00  0.00000000E+00
