Layer                                   
   1.00000000000000     
     2.6004576726853683   -1.5013744842201957    0.0000000000000000
     0.0000000000000000    3.0027489684403914    0.0000000000000000
0.0000000000000007 -0.0000000000000001 42.3968231111429744
   O    Mg   Al
    10     9     7
Selective dynamics
Direct
 -0.0000000000000000  0.0000000000000000  0.2570713639526055   T   T   T
  0.3333330000000032  0.6666669999999968  0.3150760380024066   T   T   T
 -0.0000000000000000  0.0000000000000000  0.4356836920461460   T   T   T
  0.3333330000000032  0.6666669999999968  0.4959184591233178   T   T   T
 -0.0000000000000000  0.0000000000000000  0.6163905278917937   T   T   T
  0.3333330000000032  0.6666669999999968  0.6766743203132960   T   T   T
 -0.0000000000000000  0.0000000000000000  0.7950012839941042   T   T   T
  0.6666669999999968  0.3333330000000032  0.3754004880086197   T   T   T
  0.6666669999999968  0.3333330000000032  0.5561546091829156   T   T   T
  0.6666669999999968  0.3333330000000032  0.7369969112627627   T   T   T
 -0.0000000000000000  0.0000000000000000  0.3452602170541247   T   T   T
 -0.0000000000000000  0.0000000000000000  0.5260380329908297   T   T   T
 -0.0000000000000000  0.0000000000000000  0.7068123885676193   T   T   T
  0.6666669999999968  0.3333330000000032  0.2848568499994298   T   T   T
  0.6666669999999968  0.3333330000000032  0.4658109139861081   T   T   T
  0.6666669999999968  0.3333330000000032  0.6465174580712113   T   T   T
  0.3333330000000032  0.6666669999999968  0.4055560616063867   T   T   T
  0.3333330000000032  0.6666669999999968  0.5862642685043578   T   T   T
  0.3333330000000032  0.6666669999999968  0.7672164513962424   T   T   T
 -0.0000000000000000  0.0000000000000000  0.0260389240190759   T   T   T
 -0.0000000000000000  0.0000000000000000  0.2156158339631232   T   T   T
  0.6666669999999968  0.3333330000000032  0.1548333080495757   T   T   T
  0.3333330000000032  0.6666669999999968  0.0884065626643621   T   T   T
 -0.0000000000000000  0.0000000000000000  0.8364570208989354   T   T   T
  0.6666669999999968  0.3333330000000032  0.9636725875783361   T   T   T
  0.3333330000000032  0.6666669999999968  0.8972424268722896   T   T   T
 
  0.00000000E+00  0.00000000E+00  0.00000000E+00
  0.00000000E+00  0.00000000E+00  0.00000000E+00
  0.00000000E+00  0.00000000E+00  0.00000000E+00
  0.00000000E+00  0.00000000E+00  0.00000000E+00
  0.00000000E+00  0.00000000E+00  0.00000000E+00
  0.00000000E+00  0.00000000E+00  0.00000000E+00
  0.00000000E+00  0.00000000E+00  0.00000000E+00
  0.00000000E+00  0.00000000E+00  0.00000000E+00
  0.00000000E+00  0.00000000E+00  0.00000000E+00
  0.00000000E+00  0.00000000E+00  0.00000000E+00
  0.00000000E+00  0.00000000E+00  0.00000000E+00
  0.00000000E+00  0.00000000E+00  0.00000000E+00
  0.00000000E+00  0.00000000E+00  0.00000000E+00
  0.00000000E+00  0.00000000E+00  0.00000000E+00
  0.00000000E+00  0.00000000E+00  0.00000000E+00
  0.00000000E+00  0.00000000E+00  0.00000000E+00
  0.00000000E+00  0.00000000E+00  0.00000000E+00
  0.00000000E+00  0.00000000E+00  0.00000000E+00
  0.00000000E+00  0.00000000E+00  0.00000000E+00
  0.00000000E+00  0.00000000E+00  0.00000000E+00
  0.00000000E+00  0.00000000E+00  0.00000000E+00
  0.00000000E+00  0.00000000E+00  0.00000000E+00
  0.00000000E+00  0.00000000E+00  0.00000000E+00
  0.00000000E+00  0.00000000E+00  0.00000000E+00
  0.00000000E+00  0.00000000E+00  0.00000000E+00
  0.00000000E+00  0.00000000E+00  0.00000000E+00
