Layer(26)                               
   1.00000000000000     
     2.5959741503343712   -1.5223026025804030   -0.0216319807741421
    -0.0203658138281849    3.0093305667607688    0.0216319763247703
    -0.2827683704209646    0.4897691817218413   69.1200910786235170
   O    Mg   Al
    10     9     7
Selective dynamics
Direct
  0.4774471828536448  0.5225528175090162  0.4477303030786217   T   T   T
  0.5138756732446765  0.4861243262790396  0.5543709002078430   T   T   T
  0.5273699758418573  0.4726300241732844  0.6612253043671359   T   T   T
  0.5422720439004678  0.4577279564204204  0.7654173511319584   T   T   T
  0.8366612918616241  0.1633387077597988  0.4832181579988202   T   T   T
  0.1751541005511044  0.8248458988995750  0.5187849161242184   T   T   T
  0.8521107004289590  0.1478892992527037  0.5900178370557398   T   T   T
  0.1898021334988655  0.8101978663499878  0.6256176045319535   T   T   T
  0.8649249082967572  0.1350750918485630  0.6967726160062711   T   T   T
  0.2031174202262136  0.7968825800052102  0.7319647648904422   T   T   T
  0.5045125627476352  0.4954874367542530  0.5021501081658641   T   T   T
  0.5193663092038889  0.4806336906217723  0.6089510980897259   T   T   T
  0.5321341088998039  0.4678658913557143  0.7157775343512256   T   T   T
  0.1669259955406943  0.8330740043177371  0.4665568506944027   T   T   T
  0.8431925009061985  0.1568074985811450  0.5377122396745122   T   T   T
  0.1815687894783125  0.8184312101596944  0.5733314127159801   T   T   T
  0.8569592830132251  0.1430407169755625  0.6445545862498108   T   T   T
  0.1944362367548038  0.8055637633752539  0.6801674119013370   T   T   T
  0.8697803776251263  0.1302196228050434  0.7519874244202285   T   T   T
  0.9274277574225565  0.0725722421215593  0.2353497843635992   T   T   T
  0.9478245616115615  0.0521754391139240  0.3318368439686381   T   T   T
  0.9602125463719844  0.0397874530933109  0.4277177608279956   T   T   T
  0.6067412067317619  0.3932587934726826  0.2998038823260316   T   T   T
  0.6450572495675218  0.3549427511849785  0.3965077679639606   T   T   T
  0.2685240937066311  0.7314759061965646  0.2678643994839760   T   T   T
  0.2926009897141242  0.7073990113731838  0.3641391394097298   T   T   T
 
  0.00000000E+00  0.00000000E+00  0.00000000E+00
  0.00000000E+00  0.00000000E+00  0.00000000E+00
  0.00000000E+00  0.00000000E+00  0.00000000E+00
  0.00000000E+00  0.00000000E+00  0.00000000E+00
  0.00000000E+00  0.00000000E+00  0.00000000E+00
  0.00000000E+00  0.00000000E+00  0.00000000E+00
  0.00000000E+00  0.00000000E+00  0.00000000E+00
  0.00000000E+00  0.00000000E+00  0.00000000E+00
  0.00000000E+00  0.00000000E+00  0.00000000E+00
  0.00000000E+00  0.00000000E+00  0.00000000E+00
  0.00000000E+00  0.00000000E+00  0.00000000E+00
  0.00000000E+00  0.00000000E+00  0.00000000E+00
  0.00000000E+00  0.00000000E+00  0.00000000E+00
  0.00000000E+00  0.00000000E+00  0.00000000E+00
  0.00000000E+00  0.00000000E+00  0.00000000E+00
  0.00000000E+00  0.00000000E+00  0.00000000E+00
  0.00000000E+00  0.00000000E+00  0.00000000E+00
  0.00000000E+00  0.00000000E+00  0.00000000E+00
  0.00000000E+00  0.00000000E+00  0.00000000E+00
  0.00000000E+00  0.00000000E+00  0.00000000E+00
  0.00000000E+00  0.00000000E+00  0.00000000E+00
  0.00000000E+00  0.00000000E+00  0.00000000E+00
  0.00000000E+00  0.00000000E+00  0.00000000E+00
  0.00000000E+00  0.00000000E+00  0.00000000E+00
  0.00000000E+00  0.00000000E+00  0.00000000E+00
  0.00000000E+00  0.00000000E+00  0.00000000E+00
