K-Spacing Value to Generate K-Mesh: 0.020
0
M
  13  13   1
0.0  0.0  0.0
