Layer(26)                               
   1.00000000000000     
     2.5959741503343712   -1.5223026025804030   -0.0216319807741421
    -0.0203658138281849    3.0093305667607688    0.0216319763247703
    -0.2827683704209646    0.4897691817218413   69.1200910786235170
   O    Mg   Al
    10     9     7
Selective dynamics
Direct
  0.4774471828536431  0.5225528175090179  0.4477303030786229   T   T   T
  0.5138756732446742  0.4861243262790420  0.5543709002078416   T   T   T
  0.5273699758418541  0.4726300241732875  0.6612253043671369   T   T   T
  0.5422720439004666  0.4577279564204215  0.7654173511319596   T   T   T
  0.8366612918616270  0.1633387077597958  0.4832181579988175   T   T   T
  0.1751541005511016  0.8248458988995777  0.5187849161242156   T   T   T
  0.8521107004289595  0.1478892992527032  0.5900178370557366   T   T   T
  0.1898021334988682  0.8101978663499853  0.6256176045319560   T   T   T
  0.8649249082967541  0.1350750918485662  0.6967726160062709   T   T   T
  0.2031174202262117  0.7968825800052121  0.7319647648904398   T   T   T
  0.5045125627476360  0.4954874367542522  0.5021501081658615   T   T   T
  0.5193663092038870  0.4806336906217744  0.6089510980897235   T   T   T
  0.5321341088998027  0.4678658913557154  0.7157775343512239   T   T   T
  0.1669259955406929  0.8330740043177386  0.4665568506943999   T   T   T
  0.8431925009061960  0.1568074985811475  0.5377122396745101   T   T   T
  0.1815687894783145  0.8184312101596924  0.5733314127159780   T   T   T
  0.8569592830132240  0.1430407169755635  0.6445545862498091   T   T   T
  0.1944362367548009  0.8055637633752568  0.6801674119013391   T   T   T
  0.8697803776251271  0.1302196228050426  0.7519874244202289   T   T   T
  0.9274277574225598  0.0725722421215561  0.2353497843636018   T   T   T
  0.9478245616115621  0.0521754391139234  0.3318368439686402   T   T   T
  0.9602125463719856  0.0397874530933098  0.4277177608279987   T   T   T
  0.6067412067317649  0.3932587934726794  0.2998038823260336   T   T   T
  0.6450572495675230  0.3549427511849773  0.3965077679639630   T   T   T
  0.2685240937066346  0.7314759061965612  0.2678643994839756   T   T   T
  0.2926009897141219  0.7073990113731862  0.3641391394097310   T   T   T
 
  0.00000000E+00  0.00000000E+00  0.00000000E+00
  0.00000000E+00  0.00000000E+00  0.00000000E+00
  0.00000000E+00  0.00000000E+00  0.00000000E+00
  0.00000000E+00  0.00000000E+00  0.00000000E+00
  0.00000000E+00  0.00000000E+00  0.00000000E+00
  0.00000000E+00  0.00000000E+00  0.00000000E+00
  0.00000000E+00  0.00000000E+00  0.00000000E+00
  0.00000000E+00  0.00000000E+00  0.00000000E+00
  0.00000000E+00  0.00000000E+00  0.00000000E+00
  0.00000000E+00  0.00000000E+00  0.00000000E+00
  0.00000000E+00  0.00000000E+00  0.00000000E+00
  0.00000000E+00  0.00000000E+00  0.00000000E+00
  0.00000000E+00  0.00000000E+00  0.00000000E+00
  0.00000000E+00  0.00000000E+00  0.00000000E+00
  0.00000000E+00  0.00000000E+00  0.00000000E+00
  0.00000000E+00  0.00000000E+00  0.00000000E+00
  0.00000000E+00  0.00000000E+00  0.00000000E+00
  0.00000000E+00  0.00000000E+00  0.00000000E+00
  0.00000000E+00  0.00000000E+00  0.00000000E+00
  0.00000000E+00  0.00000000E+00  0.00000000E+00
  0.00000000E+00  0.00000000E+00  0.00000000E+00
  0.00000000E+00  0.00000000E+00  0.00000000E+00
  0.00000000E+00  0.00000000E+00  0.00000000E+00
  0.00000000E+00  0.00000000E+00  0.00000000E+00
  0.00000000E+00  0.00000000E+00  0.00000000E+00
  0.00000000E+00  0.00000000E+00  0.00000000E+00
