Layer (26)                              
   1.00000000000000     
     2.5363690000000001   -1.4643729999999999    0.0000000000000000
     0.0000000000000000    2.9287459999999998    0.0000000000000000
     0.0000000000000000    0.0000000000000000   72.3975860000000040
   O    Mg   Al
    10     9     7
Selective dynamics
Direct
  0.0000000000000000  0.0000000000000000  0.4567449386703615   T   T   T
  0.3333330000000032  0.6666669999999968  0.4914043391800718   T   T   T
  0.0000000000000000  0.0000000000000000  0.5597809937358207   T   T   T
  0.3333330000000032  0.6666669999999968  0.5939569241341829   T   T   T
  0.0000000000000000  0.0000000000000000  0.6622900974460535   T   T   T
  0.3333330000000032  0.6666669999999968  0.6964653301546662   T   T   T
  0.0000000000000000  0.0000000000000000  0.7655241337092704   T   T   T
  0.6666669999999968  0.3333330000000032  0.5255942278828343   T   T   T
  0.6666669999999968  0.3333330000000032  0.6281192980631047   T   T   T
  0.6666669999999968  0.3333330000000032  0.7306523217194609   T   T   T
  0.0000000000000000  0.0000000000000000  0.5083981470119241   T   T   T
  0.0000000000000000  0.0000000000000000  0.6109407060657261   T   T   T
  0.0000000000000000  0.0000000000000000  0.7134469856492061   T   T   T
  0.6666669999999968  0.3333330000000032  0.4741972646505204   T   T   T
  0.6666669999999968  0.3333330000000032  0.5767704514933953   T   T   T
  0.6666669999999968  0.3333330000000032  0.6792724717766916   T   T   T
  0.3333330000000032  0.6666669999999968  0.5425912851557300   T   T   T
  0.3333330000000032  0.6666669999999968  0.6451050265927378   T   T   T
  0.3333330000000032  0.6666669999999968  0.7475909697585337   T   T   T
  0.0000000000000000  0.0000000000000000  0.2304757706210481   T   T   T
  0.0000000000000000  0.0000000000000000  0.3243132092544627   T   T   T
  0.0000000000000000  0.0000000000000000  0.4183765424383594   T   T   T
  0.6666669999999968  0.3333330000000032  0.2932451901592756   T   T   T
  0.6666669999999968  0.3333330000000032  0.3865335138955786   T   T   T
  0.3333330000000032  0.6666669999999968  0.2622893120104024   T   T   T
  0.3333330000000032  0.6666669999999968  0.3554485487706032   T   T   T
 
  0.00000000E+00  0.00000000E+00  0.00000000E+00
  0.00000000E+00  0.00000000E+00  0.00000000E+00
  0.00000000E+00  0.00000000E+00  0.00000000E+00
  0.00000000E+00  0.00000000E+00  0.00000000E+00
  0.00000000E+00  0.00000000E+00  0.00000000E+00
  0.00000000E+00  0.00000000E+00  0.00000000E+00
  0.00000000E+00  0.00000000E+00  0.00000000E+00
  0.00000000E+00  0.00000000E+00  0.00000000E+00
  0.00000000E+00  0.00000000E+00  0.00000000E+00
  0.00000000E+00  0.00000000E+00  0.00000000E+00
  0.00000000E+00  0.00000000E+00  0.00000000E+00
  0.00000000E+00  0.00000000E+00  0.00000000E+00
  0.00000000E+00  0.00000000E+00  0.00000000E+00
  0.00000000E+00  0.00000000E+00  0.00000000E+00
  0.00000000E+00  0.00000000E+00  0.00000000E+00
  0.00000000E+00  0.00000000E+00  0.00000000E+00
  0.00000000E+00  0.00000000E+00  0.00000000E+00
  0.00000000E+00  0.00000000E+00  0.00000000E+00
  0.00000000E+00  0.00000000E+00  0.00000000E+00
  0.00000000E+00  0.00000000E+00  0.00000000E+00
  0.00000000E+00  0.00000000E+00  0.00000000E+00
  0.00000000E+00  0.00000000E+00  0.00000000E+00
  0.00000000E+00  0.00000000E+00  0.00000000E+00
  0.00000000E+00  0.00000000E+00  0.00000000E+00
  0.00000000E+00  0.00000000E+00  0.00000000E+00
  0.00000000E+00  0.00000000E+00  0.00000000E+00
