MgO(1 1 1 (2)                           
   1.00000000000000     
     2.1244360000000002   -2.1244360000000002    0.0000000000000000
     0.0000000000000000    2.1244360000000002   -2.1244360000000002
    22.8231569999999984   22.8231569999999984   22.8231569999999984
   O    Mg
    10    11
Selective dynamics
Direct
 -0.0000000000000000 -0.0000000000000000  0.0565641556079408   T   T   T
  0.3333330000000032  0.6666669999999968  0.1184828096907379   T   T   T
 -0.0000000000000000 -0.0000000000000000  0.2425607097344131   T   T   T
  0.3333330000000032  0.6666669999999968  0.3045692158163956   T   T   T
  0.0000000000000000 -0.0000000000000000  0.4285822902655876   T   T   T
  0.3333330000000032  0.6666669999999968  0.4906026358411482   T   T   T
  0.0000000000000000  0.0000000000000000  0.6145788443920527   T   T   T
  0.6666669999999968  0.3333330000000032  0.1805403641588525   T   T   T
  0.6666669999999968  0.3333330000000032  0.3665737841836051   T   T   T
  0.6666669999999968  0.3333330000000032  0.5526601903092627   T   T   T
  0.0000000000000000 -0.0000000000000000  0.1495078397178186   T   T   T
 -0.0000000000000000 -0.0000000000000000  0.3355719999999991   T   T   T
  0.0000000000000000 -0.0000000000000000  0.5216351602821748   T   T   T
  0.6666669999999968  0.3333330000000032  0.0874986171797936   T   T   T
  0.6666669999999968  0.3333330000000032  0.2735574791287873   T   T   T
  0.6666669999999968  0.3333330000000032  0.4595857166496669   T   T   T
  0.6666669999999968  0.3333330000000032  0.6468744132806705   T   T   T
  0.3333330000000032  0.6666669999999968  0.0242685867193301   T   T   T
  0.3333330000000032  0.6666669999999968  0.2115572833503338   T   T   T
  0.3333330000000032  0.6666669999999968  0.3975865208712109   T   T   T
  0.3333330000000032  0.6666669999999968  0.5836443828202073   T   T   T
 
  0.00000000E+00  0.00000000E+00  0.00000000E+00
  0.00000000E+00  0.00000000E+00  0.00000000E+00
  0.00000000E+00  0.00000000E+00  0.00000000E+00
  0.00000000E+00  0.00000000E+00  0.00000000E+00
  0.00000000E+00  0.00000000E+00  0.00000000E+00
  0.00000000E+00  0.00000000E+00  0.00000000E+00
  0.00000000E+00  0.00000000E+00  0.00000000E+00
  0.00000000E+00  0.00000000E+00  0.00000000E+00
  0.00000000E+00  0.00000000E+00  0.00000000E+00
  0.00000000E+00  0.00000000E+00  0.00000000E+00
  0.00000000E+00  0.00000000E+00  0.00000000E+00
  0.00000000E+00  0.00000000E+00  0.00000000E+00
  0.00000000E+00  0.00000000E+00  0.00000000E+00
  0.00000000E+00  0.00000000E+00  0.00000000E+00
  0.00000000E+00  0.00000000E+00  0.00000000E+00
  0.00000000E+00  0.00000000E+00  0.00000000E+00
  0.00000000E+00  0.00000000E+00  0.00000000E+00
  0.00000000E+00  0.00000000E+00  0.00000000E+00
  0.00000000E+00  0.00000000E+00  0.00000000E+00
  0.00000000E+00  0.00000000E+00  0.00000000E+00
  0.00000000E+00  0.00000000E+00  0.00000000E+00
