Layer(26)                               
   1.00000000000000     
     2.5363690000000001   -1.4643729999999999    0.0000000000000000
     0.0000000000000000    2.9287459999999998    0.0000000000000000
     0.0000000000000000    0.0000000000000000   72.3975860000000040
   O    Mg   Al
    10     9     7
Selective dynamics
Direct
  0.5380131244177946  0.4619868755822054  0.4556959077872449   T   T   T
  0.5306060896440385  0.4693939103559615  0.5585341867062965   T   T   T
  0.5256958131302483  0.4743041868697517  0.6609983540547617   T   T   T
  0.5225262635048367  0.4774737364951633  0.7641559851592987   T   T   T
  0.8684871256917930  0.1315128743082070  0.4902196640359193   T   T   T
  0.1994351292021861  0.8005648707978139  0.5243789487240491   T   T   T
  0.8620588349406191  0.1379411650593809  0.5926872169396020   T   T   T
  0.1937773875153681  0.8062226124846319  0.6268337816985721   T   T   T
  0.8576475141559996  0.1423524858440004  0.6951499224842124   T   T   T
  0.1899266808494460  0.8100733191505540  0.7293116067982410   T   T   T
  0.5339798752219735  0.4660201247780194  0.5072790649068324   T   T   T
  0.5279286617849834  0.4720713382150166  0.6097375664867997   T   T   T
  0.5237614398742068  0.4762385601257932  0.7122174946427293   T   T   T
  0.2031685959685348  0.7968314040314652  0.4731250808647900   T   T   T
  0.8649890211110218  0.1350109788889782  0.5414374854192658   T   T   T
  0.1962760340040788  0.8037239659959212  0.5755944280303495   T   T   T
  0.8597340230202377  0.1402659769797623  0.6438986295951921   T   T   T
  0.1916493319721226  0.8083506680278774  0.6780472476159716   T   T   T
  0.8562448539499599  0.1437551460500401  0.7463226910708229   T   T   T
  0.9462531515323604  0.0537468484676396  0.2330905536693990   T   T   T
  0.9280581376831449  0.0719418623168551  0.3277208320342311   T   T   T
  0.8831058461265968  0.1168941538734032  0.4221015221688660   T   T   T
  0.6052141298607268  0.3947858701392732  0.2964178624527847   T   T   T
  0.5654915227686317  0.4345084772313683  0.3902201768218134   T   T   T
  0.2803953180353460  0.7196046819646540  0.2651394805116780   T   T   T
  0.2455760940337441  0.7544239059662559  0.3592123093202915   T   T   T
 
  0.00000000E+00  0.00000000E+00  0.00000000E+00
  0.00000000E+00  0.00000000E+00  0.00000000E+00
  0.00000000E+00  0.00000000E+00  0.00000000E+00
  0.00000000E+00  0.00000000E+00  0.00000000E+00
  0.00000000E+00  0.00000000E+00  0.00000000E+00
  0.00000000E+00  0.00000000E+00  0.00000000E+00
  0.00000000E+00  0.00000000E+00  0.00000000E+00
  0.00000000E+00  0.00000000E+00  0.00000000E+00
  0.00000000E+00  0.00000000E+00  0.00000000E+00
  0.00000000E+00  0.00000000E+00  0.00000000E+00
  0.00000000E+00  0.00000000E+00  0.00000000E+00
  0.00000000E+00  0.00000000E+00  0.00000000E+00
  0.00000000E+00  0.00000000E+00  0.00000000E+00
  0.00000000E+00  0.00000000E+00  0.00000000E+00
  0.00000000E+00  0.00000000E+00  0.00000000E+00
  0.00000000E+00  0.00000000E+00  0.00000000E+00
  0.00000000E+00  0.00000000E+00  0.00000000E+00
  0.00000000E+00  0.00000000E+00  0.00000000E+00
  0.00000000E+00  0.00000000E+00  0.00000000E+00
  0.00000000E+00  0.00000000E+00  0.00000000E+00
  0.00000000E+00  0.00000000E+00  0.00000000E+00
  0.00000000E+00  0.00000000E+00  0.00000000E+00
  0.00000000E+00  0.00000000E+00  0.00000000E+00
  0.00000000E+00  0.00000000E+00  0.00000000E+00
  0.00000000E+00  0.00000000E+00  0.00000000E+00
  0.00000000E+00  0.00000000E+00  0.00000000E+00
