Layer                                   
   1.00000000000000     
     2.5753034101725314   -1.4868516770802194    0.0000000000000000
     0.0000000000000000    2.9737033541604387    0.0000000000000000
    -0.0000000000000009    0.0000000000000000   46.1169666920140955
   O    Mg   Al
    11    10     7
Selective dynamics
Direct
  0.3333330000000032  0.6666669999999968  0.2557708793142440   T   T   T
  0.0000000000000000 -0.0000000000000000  0.3636471407317545   T   T   T
  0.3333330000000032  0.6666669999999968  0.4172971639285806   T   T   T
  0.0000000000000000  0.0000000000000000  0.5245411868195120   T   T   T
  0.3333330000000032  0.6666669999999968  0.5781748137856789   T   T   T
 -0.0000000000000000  0.0000000000000000  0.6854311223264303   T   T   T
  0.3333330000000032  0.6666669999999968  0.7390783185100906   T   T   T
  0.6666669999999968  0.3333330000000032  0.3100024404250145   T   T   T
  0.6666669999999968  0.3333330000000032  0.4709075103780554   T   T   T
  0.6666669999999968  0.3333330000000032  0.6317836033943323   T   T   T
  0.6666669999999968  0.3333330000000032  0.7933103900075381   T   T   T
 -0.0000000000000000  0.0000000000000000  0.2832841555727903   T   T   T
 -0.0000000000000000 -0.0000000000000000  0.4441056072258607   T   T   T
 -0.0000000000000000  0.0000000000000000  0.6049758109593354   T   T   T
 -0.0000000000000000 -0.0000000000000000  0.7657971641695520   T   T   T
  0.6666669999999968  0.3333330000000032  0.3904937487537243   T   T   T
  0.6666669999999968  0.3333330000000032  0.5513478968129010   T   T   T
  0.6666669999999968  0.3333330000000032  0.7122192921334184   T   T   T
  0.3333330000000032  0.6666669999999968  0.3368666359681007   T   T   T
  0.3333330000000032  0.6666669999999968  0.4977322076905521   T   T   T
  0.3333330000000032  0.6666669999999968  0.6585917619112991   T   T   T
 -0.0000000000000000  0.0000000000000000  0.0245422583034411   T   T   T
 -0.0000000000000000  0.0000000000000000  0.2238694534526621   T   T   T
  0.6666669999999968  0.3333330000000032  0.1765730544840841   T   T   T
  0.3333330000000032  0.6666669999999968  0.0742571114554832   T   T   T
 -0.0000000000000000 -0.0000000000000000  0.8252142868732145   T   T   T
  0.6666669999999968  0.3333330000000032  0.9748256102732966   T   T   T
  0.3333330000000032  0.6666669999999968  0.8725103743390827   T   T   T
 
  0.00000000E+00  0.00000000E+00  0.00000000E+00
  0.00000000E+00  0.00000000E+00  0.00000000E+00
  0.00000000E+00  0.00000000E+00  0.00000000E+00
  0.00000000E+00  0.00000000E+00  0.00000000E+00
  0.00000000E+00  0.00000000E+00  0.00000000E+00
  0.00000000E+00  0.00000000E+00  0.00000000E+00
  0.00000000E+00  0.00000000E+00  0.00000000E+00
  0.00000000E+00  0.00000000E+00  0.00000000E+00
  0.00000000E+00  0.00000000E+00  0.00000000E+00
  0.00000000E+00  0.00000000E+00  0.00000000E+00
  0.00000000E+00  0.00000000E+00  0.00000000E+00
  0.00000000E+00  0.00000000E+00  0.00000000E+00
  0.00000000E+00  0.00000000E+00  0.00000000E+00
  0.00000000E+00  0.00000000E+00  0.00000000E+00
  0.00000000E+00  0.00000000E+00  0.00000000E+00
  0.00000000E+00  0.00000000E+00  0.00000000E+00
  0.00000000E+00  0.00000000E+00  0.00000000E+00
  0.00000000E+00  0.00000000E+00  0.00000000E+00
  0.00000000E+00  0.00000000E+00  0.00000000E+00
  0.00000000E+00  0.00000000E+00  0.00000000E+00
  0.00000000E+00  0.00000000E+00  0.00000000E+00
  0.00000000E+00  0.00000000E+00  0.00000000E+00
  0.00000000E+00  0.00000000E+00  0.00000000E+00
  0.00000000E+00  0.00000000E+00  0.00000000E+00
  0.00000000E+00  0.00000000E+00  0.00000000E+00
  0.00000000E+00  0.00000000E+00  0.00000000E+00
  0.00000000E+00  0.00000000E+00  0.00000000E+00
  0.00000000E+00  0.00000000E+00  0.00000000E+00
