Layer20                                 
   1.00000000000000     
     2.5363690000000001   -1.4643729999999999    0.0000000000000000
     0.0000000000000000    2.9287459999999998    0.0000000000000000
     0.0000000000000000    0.0000000000000000   72.8175860000000057
   O    Mg   Al
     9    10     7
Selective dynamics
Direct
  0.5420561440997744  0.4579438559002256  0.4973806207263749   T   T   T
  0.5414780837518620  0.4585219162481380  0.5989315852032320   T   T   T
  0.5428602370352849  0.4571397629647151  0.7005343999587552   T   T   T
  0.2093606870066012  0.7906393129933988  0.4635783601370562   T   T   T
  0.8750479907503959  0.1249520092496041  0.5312341673399246   T   T   T
  0.2081957826307814  0.7918042173692186  0.5650833159248734   T   T   T
  0.8751353505584021  0.1248646494415979  0.6327683677081666   T   T   T
  0.2090080100107343  0.7909919899892657  0.6666365629661044   T   T   T
  0.8762276075449762  0.1237723924550309  0.7343903430243230   T   T   T
  0.5430768727418993  0.4569231272581007  0.4463802054353536   T   T   T
  0.5416635217921311  0.4583364782078689  0.5482335717425002   T   T   T
  0.5420693368835856  0.4579306631164144  0.6497794310570839   T   T   T
  0.5425975415776065  0.4574024584223935  0.7521300789955490   T   T   T
  0.8757543650484720  0.1242456349515280  0.4805257715655955   T   T   T
  0.2085211233202386  0.7914788766797614  0.5143820749687862   T   T   T
  0.8747486425182274  0.1252513574817726  0.5820773354003137   T   T   T
  0.2083052373670924  0.7916947626329076  0.6159121078306669   T   T   T
  0.8759779748917254  0.1240220251082746  0.6836557796802367   T   T   T
  0.2096554192372793  0.7903445807627207  0.7175551019597606   T   T   T
  0.8873102454275994  0.1126897545724006  0.2275994257901033   T   T   T
  0.8886218392327976  0.1113781607672024  0.3208375214473236   T   T   T
  0.8796400086537730  0.1203599913462270  0.4136006579940457   T   T   T
  0.5556964935626709  0.4443035064373291  0.2899032245722992   T   T   T
  0.5477975314052728  0.4522024685947272  0.3829159721457387   T   T   T
  0.2214445364147650  0.7785554635852350  0.2590024353857032   T   T   T
  0.2177494165360585  0.7822505834639415  0.3520325810401346   T   T   T
 
  0.00000000E+00  0.00000000E+00  0.00000000E+00
  0.00000000E+00  0.00000000E+00  0.00000000E+00
  0.00000000E+00  0.00000000E+00  0.00000000E+00
  0.00000000E+00  0.00000000E+00  0.00000000E+00
  0.00000000E+00  0.00000000E+00  0.00000000E+00
  0.00000000E+00  0.00000000E+00  0.00000000E+00
  0.00000000E+00  0.00000000E+00  0.00000000E+00
  0.00000000E+00  0.00000000E+00  0.00000000E+00
  0.00000000E+00  0.00000000E+00  0.00000000E+00
  0.00000000E+00  0.00000000E+00  0.00000000E+00
  0.00000000E+00  0.00000000E+00  0.00000000E+00
  0.00000000E+00  0.00000000E+00  0.00000000E+00
  0.00000000E+00  0.00000000E+00  0.00000000E+00
  0.00000000E+00  0.00000000E+00  0.00000000E+00
  0.00000000E+00  0.00000000E+00  0.00000000E+00
  0.00000000E+00  0.00000000E+00  0.00000000E+00
  0.00000000E+00  0.00000000E+00  0.00000000E+00
  0.00000000E+00  0.00000000E+00  0.00000000E+00
  0.00000000E+00  0.00000000E+00  0.00000000E+00
  0.00000000E+00  0.00000000E+00  0.00000000E+00
  0.00000000E+00  0.00000000E+00  0.00000000E+00
  0.00000000E+00  0.00000000E+00  0.00000000E+00
  0.00000000E+00  0.00000000E+00  0.00000000E+00
  0.00000000E+00  0.00000000E+00  0.00000000E+00
  0.00000000E+00  0.00000000E+00  0.00000000E+00
  0.00000000E+00  0.00000000E+00  0.00000000E+00
