Layer                                   
   1.00000000000000     
     2.5919820456764819   -1.4964810761798768   -0.0000000000000000
     0.0000000000000001    2.9929621523597536    0.0000000000000000
     0.0000000000000000   -0.0000000000000001   41.0050013518023917
   O    Mg   Al
     9    10     7
Selective dynamics
Direct
  0.0000000000000000  0.0000000000000000  0.3462525742822224   T   T   T
  0.3333330000000032  0.6666669999999968  0.4060743162224877   T   T   T
  0.0000000000000000  0.0000000000000000  0.5256589316101954   T   T   T
  0.3333330000000032  0.6666669999999968  0.5855335071798549   T   T   T
 -0.0000000000000000  0.0000000000000000  0.7053928817225273   T   T   T
  0.3333330000000032  0.6666669999999968  0.7653451937960500   T   T   T
  0.6666669999999968  0.3333330000000032  0.2863544617895200   T   T   T
  0.6666669999999968  0.3333330000000032  0.4658449979609324   T   T   T
  0.6666669999999968  0.3333330000000032  0.6454406907987984   T   T   T
 -0.0000000000000000 -0.0000000000000000  0.2556934073051667   T   T   T
  0.0000000000000000 -0.0000000000000000  0.4359827541002775   T   T   T
  0.0000000000000000  0.0000000000000000  0.6154819143649241   T   T   T
 -0.0000000000000000  0.0000000000000000  0.7960083435783172   T   T   T
  0.6666669999999968  0.3333330000000032  0.3761816249176670   T   T   T
  0.6666669999999968  0.3333330000000032  0.5556073153955164   T   T   T
  0.6666669999999968  0.3333330000000032  0.7353537223171376   T   T   T
  0.3333330000000032  0.6666669999999968  0.3162941558656794   T   T   T
  0.3333330000000032  0.6666669999999968  0.4957699960197610   T   T   T
  0.3333330000000032  0.6666669999999968  0.6753910016261679   T   T   T
  0.0000000000000000 -0.0000000000000000  0.0258486932415754   T   T   T
 -0.0000000000000000 -0.0000000000000000  0.1886283047115647   T   T   T
  0.6666669999999968  0.3333330000000032  0.1342975913876548   T   T   T
  0.3333330000000032  0.6666669999999968  0.0799259470844889   T   T   T
 -0.0000000000000000  0.0000000000000000  0.8630217974247423   T   T   T
  0.6666669999999968  0.3333330000000032  0.9718017222444459   T   T   T
  0.3333330000000032  0.6666669999999968  0.9173291530523260   T   T   T
 
  0.00000000E+00  0.00000000E+00  0.00000000E+00
  0.00000000E+00  0.00000000E+00  0.00000000E+00
  0.00000000E+00  0.00000000E+00  0.00000000E+00
  0.00000000E+00  0.00000000E+00  0.00000000E+00
  0.00000000E+00  0.00000000E+00  0.00000000E+00
  0.00000000E+00  0.00000000E+00  0.00000000E+00
  0.00000000E+00  0.00000000E+00  0.00000000E+00
  0.00000000E+00  0.00000000E+00  0.00000000E+00
  0.00000000E+00  0.00000000E+00  0.00000000E+00
  0.00000000E+00  0.00000000E+00  0.00000000E+00
  0.00000000E+00  0.00000000E+00  0.00000000E+00
  0.00000000E+00  0.00000000E+00  0.00000000E+00
  0.00000000E+00  0.00000000E+00  0.00000000E+00
  0.00000000E+00  0.00000000E+00  0.00000000E+00
  0.00000000E+00  0.00000000E+00  0.00000000E+00
  0.00000000E+00  0.00000000E+00  0.00000000E+00
  0.00000000E+00  0.00000000E+00  0.00000000E+00
  0.00000000E+00  0.00000000E+00  0.00000000E+00
  0.00000000E+00  0.00000000E+00  0.00000000E+00
  0.00000000E+00  0.00000000E+00  0.00000000E+00
  0.00000000E+00  0.00000000E+00  0.00000000E+00
  0.00000000E+00  0.00000000E+00  0.00000000E+00
  0.00000000E+00  0.00000000E+00  0.00000000E+00
  0.00000000E+00  0.00000000E+00  0.00000000E+00
  0.00000000E+00  0.00000000E+00  0.00000000E+00
  0.00000000E+00  0.00000000E+00  0.00000000E+00
