Layer                                   
   1.00000000000000     
     2.5925900057573852   -1.4952752265876454    0.0518951647512091
     0.0013482762012733    2.9928857367913029   -0.0518951489622574
     0.4089676063014350   -0.7083524578609989   41.9010602022283649
   O    Mg   Al
     9    10     7
Selective dynamics
Direct
  0.5551960553273873  0.4448039446804928  0.3457339377207680   T   T   T
  0.5000507101579957  0.4999492898412586  0.5257878895148766   T   T   T
  0.4448661231796059  0.5551338768111003  0.7058455026051891   T   T   T
  0.2408077578916976  0.7591922420967844  0.2857933710764401   T   T   T
  0.8699365953865100  0.1300634046184495  0.4057265254954467   T   T   T
  0.1849224785887985  0.8150775214097946  0.4657731345947742   T   T   T
  0.8151741582254678  0.1848258417746955  0.5857994673629493   T   T   T
  0.1301475021842516  0.8698524978093747  0.6458479534090439   T   T   T
  0.7592378639668411  0.2407621360454015  0.7657867274033426   T   T   T
  0.5839538048824012  0.4160461951231339  0.2551527879838404   T   T   T
  0.5273891965553920  0.4726108034477133  0.4357552781679262   T   T   T
  0.4726981434547809  0.5273018565437767  0.6158244386429732   T   T   T
  0.4160780201134132  0.5839219798782240  0.7964255300825340   T   T   T
  0.8979469791887441  0.1020530208259426  0.3157247484289809   T   T   T
  0.2125140543074150  0.7874859456999461  0.3757257915322186   T   T   T
  0.8424717567479026  0.1575282432541437  0.4957882885558305   T   T   T
  0.1576282038660369  0.8423717961330255  0.5557872315037761   T   T   T
  0.7875601917594517  0.2124398082346505  0.6758503389169574   T   T   T
  0.1021105717562417  0.8978894282309187  0.7358503089035165   T   T   T
  0.9998455732739063  0.0001544267203809  0.0257912679242205   T   T   T
  0.9381144223559403  0.0618855776587111  0.1950536602236511   T   T   T
  0.6247387974938089  0.3752612024807823  0.1388044191161950   T   T   T
  0.3120505175202713  0.6879494824763256  0.0820759886933774   T   T   T
  0.0618060998504575  0.9381939001326955  0.8565272917506525   T   T   T
  0.6876929133725032  0.3123070866386597  0.9695061676504869   T   T   T
  0.3750615085927921  0.6249384914336188  0.9127769527400338   T   T   T
 
  0.00000000E+00  0.00000000E+00  0.00000000E+00
  0.00000000E+00  0.00000000E+00  0.00000000E+00
  0.00000000E+00  0.00000000E+00  0.00000000E+00
  0.00000000E+00  0.00000000E+00  0.00000000E+00
  0.00000000E+00  0.00000000E+00  0.00000000E+00
  0.00000000E+00  0.00000000E+00  0.00000000E+00
  0.00000000E+00  0.00000000E+00  0.00000000E+00
  0.00000000E+00  0.00000000E+00  0.00000000E+00
  0.00000000E+00  0.00000000E+00  0.00000000E+00
  0.00000000E+00  0.00000000E+00  0.00000000E+00
  0.00000000E+00  0.00000000E+00  0.00000000E+00
  0.00000000E+00  0.00000000E+00  0.00000000E+00
  0.00000000E+00  0.00000000E+00  0.00000000E+00
  0.00000000E+00  0.00000000E+00  0.00000000E+00
  0.00000000E+00  0.00000000E+00  0.00000000E+00
  0.00000000E+00  0.00000000E+00  0.00000000E+00
  0.00000000E+00  0.00000000E+00  0.00000000E+00
  0.00000000E+00  0.00000000E+00  0.00000000E+00
  0.00000000E+00  0.00000000E+00  0.00000000E+00
  0.00000000E+00  0.00000000E+00  0.00000000E+00
  0.00000000E+00  0.00000000E+00  0.00000000E+00
  0.00000000E+00  0.00000000E+00  0.00000000E+00
  0.00000000E+00  0.00000000E+00  0.00000000E+00
  0.00000000E+00  0.00000000E+00  0.00000000E+00
  0.00000000E+00  0.00000000E+00  0.00000000E+00
  0.00000000E+00  0.00000000E+00  0.00000000E+00
