Layer                                   
   1.00000000000000     
     2.5925900057573852   -1.4952752265876454    0.0518951647512091
     0.0013482762012733    2.9928857367913029   -0.0518951489622574
     0.4089676063014350   -0.7083524578609989   41.4981653925915523
   O    Mg   Al
     9    10     7
Selective dynamics
Direct
  0.5545659406847694  0.4454340593231109  0.3451732691550535   T   T   T
  0.5000511916607874  0.4999488083384667  0.5257885912573884   T   T   T
  0.4455242693701020  0.5544757306206041  0.7064081145049216   T   T   T
  0.2401436786455514  0.7598563213429307  0.2850598790199534   T   T   T
  0.8693982117971777  0.1306017882077818  0.4053376960106196   T   T   T
  0.1846105612422712  0.8153894387563219  0.4655645029051552   T   T   T
  0.8154996266412906  0.1845003733588728  0.5860072792949822   T   T   T
  0.1307122151334645  0.8692877848601618  0.6462349206804964   T   T   T
  0.7599047619744940  0.2400952380377486  0.7665164569646237   T   T   T
  0.5833069700262343  0.4166930299793008  0.2543066551689828   T   T   T
  0.5269529298200973  0.4730470701830080  0.4354551921315598   T   T   T
  0.4731578622169723  0.5268421377815853  0.6161243429408279   T   T   T
  0.4167077877841505  0.5832922122074865  0.7972725663338900   T   T   T
  0.8973023745601379  0.1026976254545493  0.3150739256932855   T   T   T
  0.2119174784154337  0.7880825215919274  0.3752425793661239   T   T   T
  0.8423089565947138  0.1576910434073327  0.4956866745793737   T   T   T
  0.1577952220381761  0.8422047779608860  0.5558904826706321   T   T   T
  0.7881861949322441  0.2118138050618584  0.6763288600672882   T   T   T
  0.1027702717312876  0.8972297282558728  0.7364961350259532   T   T   T
  0.9998147192429079  0.0001852807513790  0.0257937066220511   T   T   T
  0.9374785364533897  0.0625214635612617  0.1944717229826831   T   T   T
  0.6241328061326269  0.3758671938419641  0.1385142248681450   T   T   T
  0.3119607567619852  0.6880392432346115  0.0818917265496295   T   T   T
  0.0624091458177610  0.9375908541653920  0.8571101211639857   T   T   T
  0.6877449663857556  0.3122550336254070  0.9696948653740807   T   T   T
  0.3756425639362255  0.6243574360901852  0.9130705086683153   T   T   T
 
  0.00000000E+00  0.00000000E+00  0.00000000E+00
  0.00000000E+00  0.00000000E+00  0.00000000E+00
  0.00000000E+00  0.00000000E+00  0.00000000E+00
  0.00000000E+00  0.00000000E+00  0.00000000E+00
  0.00000000E+00  0.00000000E+00  0.00000000E+00
  0.00000000E+00  0.00000000E+00  0.00000000E+00
  0.00000000E+00  0.00000000E+00  0.00000000E+00
  0.00000000E+00  0.00000000E+00  0.00000000E+00
  0.00000000E+00  0.00000000E+00  0.00000000E+00
  0.00000000E+00  0.00000000E+00  0.00000000E+00
  0.00000000E+00  0.00000000E+00  0.00000000E+00
  0.00000000E+00  0.00000000E+00  0.00000000E+00
  0.00000000E+00  0.00000000E+00  0.00000000E+00
  0.00000000E+00  0.00000000E+00  0.00000000E+00
  0.00000000E+00  0.00000000E+00  0.00000000E+00
  0.00000000E+00  0.00000000E+00  0.00000000E+00
  0.00000000E+00  0.00000000E+00  0.00000000E+00
  0.00000000E+00  0.00000000E+00  0.00000000E+00
  0.00000000E+00  0.00000000E+00  0.00000000E+00
  0.00000000E+00  0.00000000E+00  0.00000000E+00
  0.00000000E+00  0.00000000E+00  0.00000000E+00
  0.00000000E+00  0.00000000E+00  0.00000000E+00
  0.00000000E+00  0.00000000E+00  0.00000000E+00
  0.00000000E+00  0.00000000E+00  0.00000000E+00
  0.00000000E+00  0.00000000E+00  0.00000000E+00
  0.00000000E+00  0.00000000E+00  0.00000000E+00
