Layer                                   
   1.00000000000000     
     2.5925900057573852   -1.4952752265876454    0.0518951647512091
     0.0013482762012733    2.9928857367913029   -0.0518951489622574
0.4089676063014350 -0.7083524578609989 41.4981653925915554
   O    Mg   Al
     9    10     7
Selective dynamics
Direct
  0.5532412060398662  0.4467587939680140  0.3446359412368639   T   T   T
  0.5000849415921473  0.4999150584071064  0.5257893635208003   T   T   T
  0.4468235579042920  0.5531764420864140  0.7069405191228416   T   T   T
  0.2385895352903923  0.7614104646980898  0.2842069279686941   T   T   T
  0.8684485356657449  0.1315514643392146  0.4050486215016478   T   T   T
  0.1843070534875056  0.8156929465110877  0.4654223442631706   T   T   T
  0.8158694697521440  0.1841305302480194  0.5861604026396435   T   T   T
  0.1316301479400630  0.8683698520535634  0.6465288353815216   T   T   T
  0.7614628715034880  0.2385371285087545  0.7673668469955714   T   T   T
  0.5817055334697792  0.4182944665357560  0.2533110529486131   T   T   T
  0.5263603614140656  0.4736396385890394  0.4352302801560742   T   T   T
  0.4737785662101650  0.5262214337883924  0.6163423953608471   T   T   T
  0.4183391534914720  0.5816608465001650  0.7982742660431177   T   T   T
  0.8958431218622196  0.1041568781524673  0.3143996917478830   T   T   T
  0.2107083353207761  0.7892916646865852  0.3748599701012930   T   T   T
  0.8422270838198794  0.1577729161821668  0.4956042870944588   T   T   T
  0.1579640751867455  0.8420359248123164  0.5559756322733899   T   T   T
  0.7893439428595395  0.2106560571345629  0.6767201656809123   T   T   T
  0.1042203062256609  0.8957796937614996  0.7371794622972387   T   T   T
  0.9997678845112031  0.0002321154830842  0.0257895871284919   T   T   T
  0.9369111813374527  0.0630888186771988  0.1934411616370012   T   T   T
  0.6234523122441457  0.3765476877304453  0.1377810579605819   T   T   T
  0.3110093849445862  0.6889906150520103  0.0814782173664606   T   T   T
  0.0630278669594482  0.9369721330237049  0.8581447500646717   T   T   T
  0.6885947095366068  0.3114052904745555  0.9700939757395086   T   T   T
  0.3762888614306104  0.6237111385958005  0.9137892437687043   T   T   T
 
  0.00000000E+00  0.00000000E+00  0.00000000E+00
  0.00000000E+00  0.00000000E+00  0.00000000E+00
  0.00000000E+00  0.00000000E+00  0.00000000E+00
  0.00000000E+00  0.00000000E+00  0.00000000E+00
  0.00000000E+00  0.00000000E+00  0.00000000E+00
  0.00000000E+00  0.00000000E+00  0.00000000E+00
  0.00000000E+00  0.00000000E+00  0.00000000E+00
  0.00000000E+00  0.00000000E+00  0.00000000E+00
  0.00000000E+00  0.00000000E+00  0.00000000E+00
  0.00000000E+00  0.00000000E+00  0.00000000E+00
  0.00000000E+00  0.00000000E+00  0.00000000E+00
  0.00000000E+00  0.00000000E+00  0.00000000E+00
  0.00000000E+00  0.00000000E+00  0.00000000E+00
  0.00000000E+00  0.00000000E+00  0.00000000E+00
  0.00000000E+00  0.00000000E+00  0.00000000E+00
  0.00000000E+00  0.00000000E+00  0.00000000E+00
  0.00000000E+00  0.00000000E+00  0.00000000E+00
  0.00000000E+00  0.00000000E+00  0.00000000E+00
  0.00000000E+00  0.00000000E+00  0.00000000E+00
  0.00000000E+00  0.00000000E+00  0.00000000E+00
  0.00000000E+00  0.00000000E+00  0.00000000E+00
  0.00000000E+00  0.00000000E+00  0.00000000E+00
  0.00000000E+00  0.00000000E+00  0.00000000E+00
  0.00000000E+00  0.00000000E+00  0.00000000E+00
  0.00000000E+00  0.00000000E+00  0.00000000E+00
  0.00000000E+00  0.00000000E+00  0.00000000E+00
