MgO(1 1 1 (2)                           
   1.00000000000000     
     2.1244360000000002   -2.1244360000000002    0.0000000000000000
     0.0000000000000000    2.1244360000000002   -2.1244360000000002
    21.4068669999999983   21.4068669999999983   21.4068669999999983
   O    Mg
    10     9
Selective dynamics
Direct
  0.5000000000000000  0.5000000000000000  0.0329612958721983   T   T   T
  0.5000000000000000  0.5000000000000000  0.2254231428227857   T   T   T
  0.5000000000000000  0.5000000000000000  0.4239628571772140   T   T   T
  0.5000000000000000  0.5000000000000000  0.6164237041277971   T   T   T
  0.8333330000000032  0.1666669999999968  0.0942812670682795   T   T   T
  0.1666669999999968  0.8333330000000032  0.1593684385056239   T   T   T
  0.8333330000000032  0.1666669999999968  0.2915580026605556   T   T   T
  0.1666669999999968  0.8333330000000032  0.3578279973394442   T   T   T
  0.8333330000000032  0.1666669999999968  0.4900165614943786   T   T   T
  0.1666669999999968  0.8333330000000032  0.5551047329317206   T   T   T
  0.5000000000000000  0.5000000000000000  0.1256511254520996   T   T   T
  0.5000000000000000  0.5000000000000000  0.3246930000000035   T   T   T
  0.5000000000000000  0.5000000000000000  0.5237348745479002   T   T   T
  0.1666669999999968  0.8333330000000032  0.0577609523881869   T   T   T
  0.8333330000000032  0.1666669999999968  0.1921840113727300   T   T   T
  0.1666669999999968  0.8333330000000032  0.2584400069200605   T   T   T
  0.8333330000000032  0.1666669999999968  0.3909449930799418   T   T   T
  0.1666669999999968  0.8333330000000032  0.4572019886272699   T   T   T
  0.8333330000000032  0.1666669999999968  0.5916250476118128   T   T   T
 
  0.00000000E+00  0.00000000E+00  0.00000000E+00
  0.00000000E+00  0.00000000E+00  0.00000000E+00
  0.00000000E+00  0.00000000E+00  0.00000000E+00
  0.00000000E+00  0.00000000E+00  0.00000000E+00
  0.00000000E+00  0.00000000E+00  0.00000000E+00
  0.00000000E+00  0.00000000E+00  0.00000000E+00
  0.00000000E+00  0.00000000E+00  0.00000000E+00
  0.00000000E+00  0.00000000E+00  0.00000000E+00
  0.00000000E+00  0.00000000E+00  0.00000000E+00
  0.00000000E+00  0.00000000E+00  0.00000000E+00
  0.00000000E+00  0.00000000E+00  0.00000000E+00
  0.00000000E+00  0.00000000E+00  0.00000000E+00
  0.00000000E+00  0.00000000E+00  0.00000000E+00
  0.00000000E+00  0.00000000E+00  0.00000000E+00
  0.00000000E+00  0.00000000E+00  0.00000000E+00
  0.00000000E+00  0.00000000E+00  0.00000000E+00
  0.00000000E+00  0.00000000E+00  0.00000000E+00
  0.00000000E+00  0.00000000E+00  0.00000000E+00
  0.00000000E+00  0.00000000E+00  0.00000000E+00
