MgO(1 1 1 (2) 
1.0 
2.124436 -2.124436 -0.000000 
0.000000 2.124436 -2.124436 
21.406867 21.406867 21.406867 
O Mg 
10 9 
Selective Dynamics
Direct 
0.500000 0.500000 0.026970 T T T 
0.500000 0.500000 0.225452 T T T 
0.500000 0.500000 0.423934 T T T 
0.500000 0.500000 0.622415 T T T 
0.833333 0.166667 0.093131 T T T 
0.166667 0.833333 0.159291 T T T 
0.833333 0.166667 0.291613 T T T 
0.166667 0.833333 0.357773 T T T 
0.833333 0.166667 0.490094 T T T 
0.166667 0.833333 0.556255 T T T 
0.500000 0.500000 0.126211 T T T 
0.500000 0.500000 0.324693 T T T 
0.500000 0.500000 0.523175 T T T 
0.166667 0.833333 0.060051 T T T 
0.833333 0.166667 0.192372 T T T 
0.166667 0.833333 0.258532 T T T 
0.833333 0.166667 0.390853 T T T 
0.166667 0.833333 0.457014 T T T 
0.833333 0.166667 0.589335 T T T