Layer26                                 
   1.00000000000000     
     2.5924236676563148   -1.4967362681920888    0.0000000000000000
     0.0000000000000000    2.9934725363841777    0.0000000000000000
     0.0000000000000003    0.0000000000000000   71.7716350437347046
   O    Mg   Al
    11    10     7
Selective dynamics
Direct
  0.3333330000000032  0.6666669999999968  0.4320782445774967   T   T   T
  0.0000000000000000  0.0000000000000000  0.5013921810233057   T   T   T
  0.3333330000000032  0.6666669999999968  0.5357414744710383   T   T   T
  0.0000000000000000  0.0000000000000000  0.6044184682687188   T   T   T
  0.3333330000000032  0.6666669999999968  0.6387317073180370   T   T   T
  0.0000000000000000  0.0000000000000000  0.7072699038825405   T   T   T
  0.3333330000000032  0.6666669999999968  0.7412512852814501   T   T   T
  0.6666669999999968  0.3333330000000032  0.4670339789320508   T   T   T
  0.6666669999999968  0.3333330000000032  0.5700780336159497   T   T   T
  0.6666669999999968  0.3333330000000032  0.6730152251511257   T   T   T
  0.6666669999999968  0.3333330000000032  0.7736347643839068   T   T   T
  0.0000000000000000  0.0000000000000000  0.4509825454093743   T   T   T
  0.0000000000000000  0.0000000000000000  0.5539742736732833   T   T   T
  0.0000000000000000  0.0000000000000000  0.6569439126504548   T   T   T
  0.0000000000000000  0.0000000000000000  0.7605299518931190   T   T   T
  0.6666669999999968  0.3333330000000032  0.5196327084445045   T   T   T
  0.6666669999999968  0.3333330000000032  0.6226405628577751   T   T   T
  0.6666669999999968  0.3333330000000032  0.7255681710433990   T   T   T
  0.3333330000000032  0.6666669999999968  0.4852924606723761   T   T   T
  0.3333330000000032  0.6666669999999968  0.5883127467277305   T   T   T
  0.3333330000000032  0.6666669999999968  0.6912305984455998   T   T   T
  0.0000000000000000  0.0000000000000000  0.2272590359167737   T   T   T
  0.0000000000000000  0.0000000000000000  0.3206402502222190   T   T   T
  0.0000000000000000  0.0000000000000000  0.4128795893352049   T   T   T
  0.6666669999999968  0.3333330000000032  0.2895881772613080   T   T   T
  0.6666669999999968  0.3333330000000032  0.3831322053336734   T   T   T
  0.3333330000000032  0.6666669999999968  0.2586720846688166   T   T   T
  0.3333330000000032  0.6666669999999968  0.3518684585387888   T   T   T
 
  0.00000000E+00  0.00000000E+00  0.00000000E+00
  0.00000000E+00  0.00000000E+00  0.00000000E+00
  0.00000000E+00  0.00000000E+00  0.00000000E+00
  0.00000000E+00  0.00000000E+00  0.00000000E+00
  0.00000000E+00  0.00000000E+00  0.00000000E+00
  0.00000000E+00  0.00000000E+00  0.00000000E+00
  0.00000000E+00  0.00000000E+00  0.00000000E+00
  0.00000000E+00  0.00000000E+00  0.00000000E+00
  0.00000000E+00  0.00000000E+00  0.00000000E+00
  0.00000000E+00  0.00000000E+00  0.00000000E+00
  0.00000000E+00  0.00000000E+00  0.00000000E+00
  0.00000000E+00  0.00000000E+00  0.00000000E+00
  0.00000000E+00  0.00000000E+00  0.00000000E+00
  0.00000000E+00  0.00000000E+00  0.00000000E+00
  0.00000000E+00  0.00000000E+00  0.00000000E+00
  0.00000000E+00  0.00000000E+00  0.00000000E+00
  0.00000000E+00  0.00000000E+00  0.00000000E+00
  0.00000000E+00  0.00000000E+00  0.00000000E+00
  0.00000000E+00  0.00000000E+00  0.00000000E+00
  0.00000000E+00  0.00000000E+00  0.00000000E+00
  0.00000000E+00  0.00000000E+00  0.00000000E+00
  0.00000000E+00  0.00000000E+00  0.00000000E+00
  0.00000000E+00  0.00000000E+00  0.00000000E+00
  0.00000000E+00  0.00000000E+00  0.00000000E+00
  0.00000000E+00  0.00000000E+00  0.00000000E+00
  0.00000000E+00  0.00000000E+00  0.00000000E+00
  0.00000000E+00  0.00000000E+00  0.00000000E+00
  0.00000000E+00  0.00000000E+00  0.00000000E+00
