Layer                                   
   1.00000000000000     
     2.5919820456764819   -1.4964810761798768    0.0000000000000000
     0.0000000000000001    2.9929621523597536    0.0000000000000000
     0.0000000000000000   -0.0000000000000001   45.5155515005006563
   O    Mg   Al
     9    10     7
Selective dynamics
Direct
 -0.0000000000000000  0.0000000000000000  0.3633650337445986   T   T   T
  0.3333330000000032  0.6666669999999968  0.4174876101621015   T   T   T
 -0.0000000000000000  0.0000000000000000  0.5257909026194927   T   T   T
  0.3333330000000032  0.6666669999999968  0.5799696960274244   T   T   T
 -0.0000000000000000  0.0000000000000000  0.6882352823820683   T   T   T
  0.3333330000000032  0.6666669999999968  0.7423386310224049   T   T   T
  0.6666669999999968  0.3333330000000032  0.3092387719436031   T   T   T
  0.6666669999999968  0.3333330000000032  0.4716193504365815   T   T   T
  0.6666669999999968  0.3333330000000032  0.6340930710652092   T   T   T
 -0.0000000000000000  0.0000000000000000  0.2810490745567646   T   T   T
 -0.0000000000000000  0.0000000000000000  0.4445532357601210   T   T   T
 -0.0000000000000000  0.0000000000000000  0.6070250115466428   T   T   T
 -0.0000000000000000  0.0000000000000000  0.7705550776653516   T   T   T
  0.6666669999999968  0.3333330000000032  0.3904329668889750   T   T   T
  0.6666669999999968  0.3333330000000032  0.5528755500545776   T   T   T
  0.6666669999999968  0.3333330000000032  0.7153096857344581   T   T   T
  0.3333330000000032  0.6666669999999968  0.3362703095934178   T   T   T
  0.3333330000000032  0.6666669999999968  0.4987000211178247   T   T   T
  0.3333330000000032  0.6666669999999968  0.6611563877648737   T   T   T
 -0.0000000000000000  0.0000000000000000  0.0257790538654254   T   T   T
 -0.0000000000000000  0.0000000000000000  0.1749575226090213   T   T   T
  0.6666669999999968  0.3333330000000032  0.1249383902394506   T   T   T
  0.3333330000000032  0.6666669999999968  0.0752962871277916   T   T   T
 -0.0000000000000000  0.0000000000000000  0.8765980410496111   T   T   T
  0.6666669999999968  0.3333330000000032  0.9762615868670189   T   T   T
  0.3333330000000032  0.6666669999999968  0.9266184481552056   T   T   T
 
  0.00000000E+00  0.00000000E+00  0.00000000E+00
  0.00000000E+00  0.00000000E+00  0.00000000E+00
  0.00000000E+00  0.00000000E+00  0.00000000E+00
  0.00000000E+00  0.00000000E+00  0.00000000E+00
  0.00000000E+00  0.00000000E+00  0.00000000E+00
  0.00000000E+00  0.00000000E+00  0.00000000E+00
  0.00000000E+00  0.00000000E+00  0.00000000E+00
  0.00000000E+00  0.00000000E+00  0.00000000E+00
  0.00000000E+00  0.00000000E+00  0.00000000E+00
  0.00000000E+00  0.00000000E+00  0.00000000E+00
  0.00000000E+00  0.00000000E+00  0.00000000E+00
  0.00000000E+00  0.00000000E+00  0.00000000E+00
  0.00000000E+00  0.00000000E+00  0.00000000E+00
  0.00000000E+00  0.00000000E+00  0.00000000E+00
  0.00000000E+00  0.00000000E+00  0.00000000E+00
  0.00000000E+00  0.00000000E+00  0.00000000E+00
  0.00000000E+00  0.00000000E+00  0.00000000E+00
  0.00000000E+00  0.00000000E+00  0.00000000E+00
  0.00000000E+00  0.00000000E+00  0.00000000E+00
  0.00000000E+00  0.00000000E+00  0.00000000E+00
  0.00000000E+00  0.00000000E+00  0.00000000E+00
  0.00000000E+00  0.00000000E+00  0.00000000E+00
  0.00000000E+00  0.00000000E+00  0.00000000E+00
  0.00000000E+00  0.00000000E+00  0.00000000E+00
  0.00000000E+00  0.00000000E+00  0.00000000E+00
  0.00000000E+00  0.00000000E+00  0.00000000E+00
