OT hollow                               
   1.00000000000000     
     2.5811541392653616   -1.5324138013876256    0.0027477723695831
    -0.0365325771383558    3.0015513008946511   -0.0027477716826384
     0.0222045901268964   -0.0384594709818474   41.7515825131760465
   O    Mg   Al
    10     9     7
Selective dynamics
Direct
  0.5074106374335390  0.4925893625407254  0.2531619271163490   T   T   T
  0.5065997457840566  0.4934002542150689  0.4349796211992965   T   T   T
  0.4933988614960050  0.5066011385049616  0.6170950039986552   T   T   T
  0.4925871145244455  0.5074128855051986  0.7989116944492670   T   T   T
  0.8490342545071464  0.1509657454897415  0.3135838952343611   T   T   T
  0.1777933108771475  0.8222066891219997  0.3742903682632311   T   T   T
  0.8355122512290831  0.1644877487713430  0.4956733983922973   T   T   T
  0.1644868132908238  0.8355131867088352  0.5564014062771040   T   T   T
  0.8222044885727454  0.1777955114285833  0.6777839709201277   T   T   T
  0.1509627480469427  0.8490372519577684  0.7384899951061239   T   T   T
  0.5134164330109128  0.4865835669954041  0.3439460291439301   T   T   T
  0.4999996361421810  0.5000003638578119  0.5260372737863825   T   T   T
  0.4865812156443939  0.5134187843499569  0.7081280249538719   T   T   T
  0.1855276455086428  0.8144723546670463  0.2832519984839484   T   T   T
  0.8421667393119717  0.1578332606817542  0.4046383422855039   T   T   T
  0.1710502748081373  0.8289497251915570  0.4653228712505922   T   T   T
  0.8289486412423978  0.1710513587578575  0.5867516564009141   T   T   T
  0.1578314591747289  0.8421685408311896  0.6474359926204800   T   T   T
  0.8144697939071420  0.1855302059139008  0.7688218796249577   T   T   T
  0.0000071679249698  0.9999928320417912  0.0260388204109192   T   T   T
  0.9901097963318990  0.0098902035263334  0.2174327738769688   T   T   T
  0.6973981097527653  0.3026018902729488  0.1562104565171555   T   T   T
  0.3180306226605094  0.6819693773355683  0.0884216413265974   T   T   T
  0.0098891247392215  0.9901108753947300  0.8346407453244840   T   T   T
  0.6819804658732616  0.3180195341661237  0.9636550650771597   T   T   T
  0.3026026482049367  0.6973973517718007  0.8958621479593344   T   T   T
 
  0.00000000E+00  0.00000000E+00  0.00000000E+00
  0.00000000E+00  0.00000000E+00  0.00000000E+00
  0.00000000E+00  0.00000000E+00  0.00000000E+00
  0.00000000E+00  0.00000000E+00  0.00000000E+00
  0.00000000E+00  0.00000000E+00  0.00000000E+00
  0.00000000E+00  0.00000000E+00  0.00000000E+00
  0.00000000E+00  0.00000000E+00  0.00000000E+00
  0.00000000E+00  0.00000000E+00  0.00000000E+00
  0.00000000E+00  0.00000000E+00  0.00000000E+00
  0.00000000E+00  0.00000000E+00  0.00000000E+00
  0.00000000E+00  0.00000000E+00  0.00000000E+00
  0.00000000E+00  0.00000000E+00  0.00000000E+00
  0.00000000E+00  0.00000000E+00  0.00000000E+00
  0.00000000E+00  0.00000000E+00  0.00000000E+00
  0.00000000E+00  0.00000000E+00  0.00000000E+00
  0.00000000E+00  0.00000000E+00  0.00000000E+00
  0.00000000E+00  0.00000000E+00  0.00000000E+00
  0.00000000E+00  0.00000000E+00  0.00000000E+00
  0.00000000E+00  0.00000000E+00  0.00000000E+00
  0.00000000E+00  0.00000000E+00  0.00000000E+00
  0.00000000E+00  0.00000000E+00  0.00000000E+00
  0.00000000E+00  0.00000000E+00  0.00000000E+00
  0.00000000E+00  0.00000000E+00  0.00000000E+00
  0.00000000E+00  0.00000000E+00  0.00000000E+00
  0.00000000E+00  0.00000000E+00  0.00000000E+00
  0.00000000E+00  0.00000000E+00  0.00000000E+00
