Layer                                   
   1.00000000000000     
     2.5925900057573852   -1.4952752265876454    0.0518951647512091
     0.0013482762012733    2.9928857367913029   -0.0518951489622574
     0.4089676063014350   -0.7083524578609989   44.3184290600492332
   O    Mg   Al
     9    10     7
Selective dynamics
Direct
  0.5557598248886355  0.4442401751192445  0.3540474982501122   T   T   T
  0.5000128130543765  0.4999871869448776  0.5257886530359820   T   T   T
  0.4442637704535118  0.5557362295371941  0.6975301806523300   T   T   T
  0.2410904655792914  0.7589095344091906  0.2968726208107971   T   T   T
  0.8704584756107364  0.1295415243942231  0.4113219084897018   T   T   T
  0.1852413740938445  0.8147586259047417  0.4685019364255337   T   T   T
  0.8147851661558291  0.1852148338443344  0.5830754381503722   T   T   T
  0.1295652343811917  0.8704347656124349  0.6402560782133528   T   T   T
  0.7589308349623111  0.2410691650499316  0.7547063127059982   T   T   T
  0.5839996792346939  0.4160003207708413  0.2675322637911254   T   T   T
  0.5278449081614414  0.4721550918416641  0.4399083771388894   T   T   T
  0.4721802421159940  0.5278197578825635  0.6116695881644468   T   T   T
  0.4160212491972147  0.5839787507944221  0.7840459126788379   T   T   T
  0.8984221960653878  0.1015778039492923  0.3254269365666821   T   T   T
  0.2131042296597422  0.7868957703476188  0.3826862782527242   T   T   T
  0.8426244146565981  0.1573755853454554  0.4971373522857657   T   T   T
  0.1574018592472139  0.8425981407518482  0.5544399474827101   T   T   T
  0.7869196780009561  0.2130803219931464  0.6688913917977063   T   T   T
  0.1016003371941364  0.8983996627930240  0.7261515135947111   T   T   T
  0.9999408678894901  0.0000591321047971  0.0257887720598568   T   T   T
  0.9373779362709447  0.0626220637437067  0.2070382949062219   T   T   T
  0.6257605129275409  0.3742394870470502  0.1444850361651594   T   T   T
  0.3136004986275672  0.6863995013690224  0.0829083135736450   T   T   T
  0.0626257834629486  0.9373742165202043  0.8445404737936357   T   T   T
  0.6863055754881886  0.3136944245229739  0.9686696302853224   T   T   T
  0.3741620726202279  0.6258379274061828  0.9070942907283310   T   T   T
 
  0.00000000E+00  0.00000000E+00  0.00000000E+00
  0.00000000E+00  0.00000000E+00  0.00000000E+00
  0.00000000E+00  0.00000000E+00  0.00000000E+00
  0.00000000E+00  0.00000000E+00  0.00000000E+00
  0.00000000E+00  0.00000000E+00  0.00000000E+00
  0.00000000E+00  0.00000000E+00  0.00000000E+00
  0.00000000E+00  0.00000000E+00  0.00000000E+00
  0.00000000E+00  0.00000000E+00  0.00000000E+00
  0.00000000E+00  0.00000000E+00  0.00000000E+00
  0.00000000E+00  0.00000000E+00  0.00000000E+00
  0.00000000E+00  0.00000000E+00  0.00000000E+00
  0.00000000E+00  0.00000000E+00  0.00000000E+00
  0.00000000E+00  0.00000000E+00  0.00000000E+00
  0.00000000E+00  0.00000000E+00  0.00000000E+00
  0.00000000E+00  0.00000000E+00  0.00000000E+00
  0.00000000E+00  0.00000000E+00  0.00000000E+00
  0.00000000E+00  0.00000000E+00  0.00000000E+00
  0.00000000E+00  0.00000000E+00  0.00000000E+00
  0.00000000E+00  0.00000000E+00  0.00000000E+00
  0.00000000E+00  0.00000000E+00  0.00000000E+00
  0.00000000E+00  0.00000000E+00  0.00000000E+00
  0.00000000E+00  0.00000000E+00  0.00000000E+00
  0.00000000E+00  0.00000000E+00  0.00000000E+00
  0.00000000E+00  0.00000000E+00  0.00000000E+00
  0.00000000E+00  0.00000000E+00  0.00000000E+00
  0.00000000E+00  0.00000000E+00  0.00000000E+00
