Layer                                   
   1.00000000000000     
     2.6004576726853683   -1.5013744842201957    0.0000000000000000
     0.0000000000000000    3.0027489684403914    0.0000000000000000
0.0000000000000007 -0.0000000000000001 42.7822487757897287
   O    Mg   Al
    10     9     7
Selective dynamics
Direct
  0.0000000000000000  0.0000000000000000  0.2597317456821221   T   T   T
  0.3333330000000032  0.6666669999999968  0.3171503522177164   T   T   T
  0.0000000000000000  0.0000000000000000  0.4365559405072694   T   T   T
  0.3333330000000032  0.6666669999999968  0.4962274970161544   T   T   T
  0.0000000000000000  0.0000000000000000  0.6155176192082791   T   T   T
  0.3333330000000032  0.6666669999999968  0.6752248574280910   T   T   T
  0.0000000000000000  0.0000000000000000  0.7923421997796162   T   T   T
  0.6666669999999968  0.3333330000000032  0.3768485007132910   T   T   T
  0.6666669999999968  0.3333330000000032  0.5558451375699061   T   T   T
  0.6666669999999968  0.3333330000000032  0.7349230846349504   T   T   T
  0.0000000000000000  0.0000000000000000  0.3470367119812842   T   T   T
  0.0000000000000000  0.0000000000000000  0.5260359201752541   T   T   T
  0.0000000000000000  0.0000000000000000  0.7050371870365221   T   T   T
  0.6666669999999968  0.3333330000000032  0.2872616454923177   T   T   T
  0.6666669999999968  0.3333330000000032  0.4664085914363254   T   T   T
  0.6666669999999968  0.3333330000000032  0.6453515223447083   T   T   T
  0.3333330000000032  0.6666669999999968  0.4067219516004518   T   T   T
  0.3333330000000032  0.6666669999999968  0.5856640334759112   T   T   T
  0.3333330000000032  0.6666669999999968  0.7648136357428922   T   T   T
  0.0000000000000000  0.0000000000000000  0.0260397339930993   T   T   T
  0.0000000000000000  0.0000000000000000  0.2186625661883631   T   T   T
  0.6666669999999968  0.3333330000000032  0.1591264038604997   T   T   T
  0.3333330000000032  0.6666669999999968  0.0894405851372810   T   T   T
  0.0000000000000000  0.0000000000000000  0.8334136139862707   T   T   T
  0.6666669999999968  0.3333330000000032  0.9626387206302063   T   T   T
  0.3333330000000032  0.6666669999999968  0.8929472421612076   T   T   T
 
  0.00000000E+00  0.00000000E+00  0.00000000E+00
  0.00000000E+00  0.00000000E+00  0.00000000E+00
  0.00000000E+00  0.00000000E+00  0.00000000E+00
  0.00000000E+00  0.00000000E+00  0.00000000E+00
  0.00000000E+00  0.00000000E+00  0.00000000E+00
  0.00000000E+00  0.00000000E+00  0.00000000E+00
  0.00000000E+00  0.00000000E+00  0.00000000E+00
  0.00000000E+00  0.00000000E+00  0.00000000E+00
  0.00000000E+00  0.00000000E+00  0.00000000E+00
  0.00000000E+00  0.00000000E+00  0.00000000E+00
  0.00000000E+00  0.00000000E+00  0.00000000E+00
  0.00000000E+00  0.00000000E+00  0.00000000E+00
  0.00000000E+00  0.00000000E+00  0.00000000E+00
  0.00000000E+00  0.00000000E+00  0.00000000E+00
  0.00000000E+00  0.00000000E+00  0.00000000E+00
  0.00000000E+00  0.00000000E+00  0.00000000E+00
  0.00000000E+00  0.00000000E+00  0.00000000E+00
  0.00000000E+00  0.00000000E+00  0.00000000E+00
  0.00000000E+00  0.00000000E+00  0.00000000E+00
  0.00000000E+00  0.00000000E+00  0.00000000E+00
  0.00000000E+00  0.00000000E+00  0.00000000E+00
  0.00000000E+00  0.00000000E+00  0.00000000E+00
  0.00000000E+00  0.00000000E+00  0.00000000E+00
  0.00000000E+00  0.00000000E+00  0.00000000E+00
  0.00000000E+00  0.00000000E+00  0.00000000E+00
  0.00000000E+00  0.00000000E+00  0.00000000E+00
