Layer                                   
   1.00000000000000     
     2.5922013181189856   -1.4966076734688392    0.0000000000000000
     0.0000000000000000    2.9932153469376783    0.0000000000000000
    -0.0000000000000002    0.0000000000000000   43.7007025032557550
   O    Mg   Al
    10    11     7
Selective dynamics
Direct
  0.0000000000000000 -0.0000000000000000  0.2685846358703947   T   T   T
  0.3333330000000032  0.6666669999999968  0.3253273486091167   T   T   T
  0.0000000000000000 -0.0000000000000000  0.4390513225711544   T   T   T
  0.3333330000000032  0.6666669999999968  0.4959018038162642   T   T   T
  0.0000000000000000 -0.0000000000000000  0.6095851508400216   T   T   T
  0.3333330000000032  0.6666669999999968  0.6664758765696067   T   T   T
  0.0000000000000000 -0.0000000000000000  0.7800585445272510   T   T   T
  0.6666669999999968  0.3333330000000032  0.3821599679764801   T   T   T
  0.6666669999999968  0.3333330000000032  0.5527452700413813   T   T   T
  0.6666669999999968  0.3333330000000032  0.7233054738689173   T   T   T
  0.0000000000000000 -0.0000000000000000  0.3537752422482653   T   T   T
  0.0000000000000000 -0.0000000000000000  0.5243068772351109   T   T   T
  0.0000000000000000 -0.0000000000000000  0.6948709962781117   T   T   T
  0.6666669999999968  0.3333330000000032  0.2969534774524468   T   T   T
  0.6666669999999968  0.3333330000000032  0.4674867279380789   T   T   T
  0.6666669999999968  0.3333330000000032  0.6380060414009534   T   T   T
  0.6666669999999968  0.3333330000000032  0.8094621758571404   T   T   T
  0.3333330000000032  0.6666669999999968  0.2391868236422373   T   T   T
  0.3333330000000032  0.6666669999999968  0.4106188711976648   T   T   T
  0.3333330000000032  0.6666669999999968  0.5811293133389358   T   T   T
  0.3333330000000032  0.6666669999999968  0.7517134786114221   T   T   T
  0.0000000000000000 -0.0000000000000000  0.0243228180076250   T   T   T
  0.0000000000000000 -0.0000000000000000  0.1823961626330567   T   T   T
  0.6666669999999968  0.3333330000000032  0.1299968377601481   T   T   T
  0.3333330000000032  0.6666669999999968  0.0770921620811712   T   T   T
  0.0000000000000000 -0.0000000000000000  0.8662487301982448   T   T   T
  0.6666669999999968  0.3333330000000032  0.9715513542832244   T   T   T
  0.3333330000000032  0.6666669999999968  0.9186575151456170   T   T   T
 
  0.00000000E+00  0.00000000E+00  0.00000000E+00
  0.00000000E+00  0.00000000E+00  0.00000000E+00
  0.00000000E+00  0.00000000E+00  0.00000000E+00
  0.00000000E+00  0.00000000E+00  0.00000000E+00
  0.00000000E+00  0.00000000E+00  0.00000000E+00
  0.00000000E+00  0.00000000E+00  0.00000000E+00
  0.00000000E+00  0.00000000E+00  0.00000000E+00
  0.00000000E+00  0.00000000E+00  0.00000000E+00
  0.00000000E+00  0.00000000E+00  0.00000000E+00
  0.00000000E+00  0.00000000E+00  0.00000000E+00
  0.00000000E+00  0.00000000E+00  0.00000000E+00
  0.00000000E+00  0.00000000E+00  0.00000000E+00
  0.00000000E+00  0.00000000E+00  0.00000000E+00
  0.00000000E+00  0.00000000E+00  0.00000000E+00
  0.00000000E+00  0.00000000E+00  0.00000000E+00
  0.00000000E+00  0.00000000E+00  0.00000000E+00
  0.00000000E+00  0.00000000E+00  0.00000000E+00
  0.00000000E+00  0.00000000E+00  0.00000000E+00
  0.00000000E+00  0.00000000E+00  0.00000000E+00
  0.00000000E+00  0.00000000E+00  0.00000000E+00
  0.00000000E+00  0.00000000E+00  0.00000000E+00
  0.00000000E+00  0.00000000E+00  0.00000000E+00
  0.00000000E+00  0.00000000E+00  0.00000000E+00
  0.00000000E+00  0.00000000E+00  0.00000000E+00
  0.00000000E+00  0.00000000E+00  0.00000000E+00
  0.00000000E+00  0.00000000E+00  0.00000000E+00
  0.00000000E+00  0.00000000E+00  0.00000000E+00
  0.00000000E+00  0.00000000E+00  0.00000000E+00
