MgO(1 1 1 (2)                           
   1.00000000000000     
     2.1244360000000002   -2.1244360000000002    0.0000000000000000
     0.0000000000000000    2.1244360000000002   -2.1244360000000002
    22.8231569999999984   22.8231569999999984   22.8231569999999984
   O    Mg
    11    10
Selective dynamics
Direct
  0.3333330000000032  0.6666669999999968  0.0301556617894057   T   T   T
  0.0000000000000000  0.0000000000000000  0.1490355287385896   T   T   T
  0.3333330000000032  0.6666669999999968  0.2111058153497646   T   T   T
 -0.0000000000000000 -0.0000000000000000  0.3355719999999991   T   T   T
  0.3333330000000032  0.6666669999999968  0.3978174531454527   T   T   T
 -0.0000000000000000 -0.0000000000000000  0.5221074712614039   T   T   T
  0.3333330000000032  0.6666669999999968  0.5833219776043018   T   T   T
  0.6666669999999968  0.3333330000000032  0.0878210223956990   T   T   T
  0.6666669999999968  0.3333330000000032  0.2733265468545454   T   T   T
  0.6666669999999968  0.3333330000000032  0.4600371846502361   T   T   T
  0.6666669999999968  0.3333330000000032  0.6409873382105949   T   T   T
  0.0000000000000000 -0.0000000000000000  0.0535505386635970   T   T   T
  0.0000000000000000 -0.0000000000000000  0.2421763391251142   T   T   T
  0.0000000000000000 -0.0000000000000000  0.4289666608748866   T   T   T
 -0.0000000000000000  0.0000000000000000  0.6175924613363966   T   T   T
  0.6666669999999968  0.3333330000000032  0.1798807502165444   T   T   T
  0.6666669999999968  0.3333330000000032  0.3667141719503622   T   T   T
  0.6666669999999968  0.3333330000000032  0.5537883751192580   T   T   T
  0.3333330000000032  0.6666669999999968  0.1173546248807428   T   T   T
  0.3333330000000032  0.6666669999999968  0.3044288280496385   T   T   T
  0.3333330000000032  0.6666669999999968  0.4912622497834563   T   T   T
 
  0.00000000E+00  0.00000000E+00  0.00000000E+00
  0.00000000E+00  0.00000000E+00  0.00000000E+00
  0.00000000E+00  0.00000000E+00  0.00000000E+00
  0.00000000E+00  0.00000000E+00  0.00000000E+00
  0.00000000E+00  0.00000000E+00  0.00000000E+00
  0.00000000E+00  0.00000000E+00  0.00000000E+00
  0.00000000E+00  0.00000000E+00  0.00000000E+00
  0.00000000E+00  0.00000000E+00  0.00000000E+00
  0.00000000E+00  0.00000000E+00  0.00000000E+00
  0.00000000E+00  0.00000000E+00  0.00000000E+00
  0.00000000E+00  0.00000000E+00  0.00000000E+00
  0.00000000E+00  0.00000000E+00  0.00000000E+00
  0.00000000E+00  0.00000000E+00  0.00000000E+00
  0.00000000E+00  0.00000000E+00  0.00000000E+00
  0.00000000E+00  0.00000000E+00  0.00000000E+00
  0.00000000E+00  0.00000000E+00  0.00000000E+00
  0.00000000E+00  0.00000000E+00  0.00000000E+00
  0.00000000E+00  0.00000000E+00  0.00000000E+00
  0.00000000E+00  0.00000000E+00  0.00000000E+00
  0.00000000E+00  0.00000000E+00  0.00000000E+00
  0.00000000E+00  0.00000000E+00  0.00000000E+00
