MgO(1 1 1 (2) 
1.0 
2.124436 -2.124436 0.000000 
0.000000 2.124436 -2.124436 
22.823157 22.823157 22.823157 
O Mg 
11 10 
Selective Dynamics
Direct 
0.333333 0.666667 0.025297 T T T 
1.000000 0.000000 0.149407 T T T 
0.333333 0.666667 0.211462 T T T 
1.000000 0.000000 0.335572 T T T 
0.333333 0.666667 0.397627 T T T 
1.000000 -0.000000 0.521736 T T T 
0.333333 0.666667 0.583791 T T T 
0.666667 0.333333 0.087352 T T T 
0.666667 0.333333 0.273517 T T T 
0.666667 0.333333 0.459681 T T T 
0.666667 0.333333 0.645846 T T T 
-0.000000 -0.000000 0.056324 T T T 
0.000000 0.000000 0.242489 T T T 
0.000000 -0.000000 0.428654 T T T 
0.000000 0.000000 0.614819 T T T 
0.666667 0.333333 0.180434 T T T 
0.666667 0.333333 0.366599 T T T 
0.666667 0.333333 0.552764 T T T 
0.333333 0.666667 0.118379 T T T 
0.333333 0.666667 0.304544 T T T 
0.333333 0.666667 0.490709 T T T 
