OT hollow                               
   1.00000000000000     
     2.5811541392653616   -1.5324138013876256    0.0027477723695831
    -0.0365325771383558    3.0015513008946511   -0.0027477716826384
     0.0222045901268964   -0.0384594709818474   43.6667927202024728
   O    Mg   Al
    10     9     7
Selective dynamics
Direct
  0.5072990652438710  0.4927009347303929  0.2711222808947140   T   T   T
  0.5071394582513450  0.4928605417477812  0.4409691619422469   T   T   T
  0.4928610958245455  0.5071389041764207  0.6110597120633366   T   T   T
  0.4927117870436630  0.5072882129859808  0.7808966414969859   T   T   T
  0.8498146596222355  0.1501853403746522  0.3275651056134592   T   T   T
  0.1785005457542216  0.8214994542449254  0.3842753590919318   T   T   T
  0.8358468202746685  0.1641531797257439  0.4976366654363282   T   T   T
  0.1641512689845902  0.8358487310150691  0.5543941910399282   T   T   T
  0.8215014757483623  0.1784985242529663  0.6677510099125050   T   T   T
  0.1501887287289203  0.8498112712757905  0.7244585891651625   T   T   T
  0.5142286325199853  0.4857713674863316  0.3559207887570716   T   T   T
  0.4999996162785568  0.5000003837214364  0.5260148796808602   T   T   T
  0.4857754201988791  0.5142245797954720  0.6961027037276525   T   T   T
  0.1862074674614556  0.8137925327142332  0.2992314899265838   T   T   T
  0.8426770206345642  0.1573229793591615  0.4126223412359927   T   T   T
  0.1716281575797647  0.8283718424199296  0.4692942294817676   T   T   T
  0.8283729069850915  0.1716270930151643  0.5827344329606287   T   T   T
  0.1573260514776076  0.8426739485283108  0.6394040079479308   T   T   T
  0.8137974153970806  0.1862025844239617  0.7527886933615965   T   T   T
  0.9999821164162754  0.0000178835504850  0.0262385993695265   T   T   T
  0.9957347268254395  0.0042652730327930  0.2376682448880143   T   T   T
  0.6932128708342244  0.3067871291914896  0.1864721915347402   T   T   T
  0.3295823081660568  0.6704176918300210  0.0787811440803199   T   T   T
  0.0042627227631821  0.9957372773707692  0.8143481737179856   T   T   T
  0.6703939575961082  0.3296060424432772  0.9737015507627416   T   T   T
  0.3068037033893113  0.6931962965874257  0.8655148119100080   T   T   T
 
  0.00000000E+00  0.00000000E+00  0.00000000E+00
  0.00000000E+00  0.00000000E+00  0.00000000E+00
  0.00000000E+00  0.00000000E+00  0.00000000E+00
  0.00000000E+00  0.00000000E+00  0.00000000E+00
  0.00000000E+00  0.00000000E+00  0.00000000E+00
  0.00000000E+00  0.00000000E+00  0.00000000E+00
  0.00000000E+00  0.00000000E+00  0.00000000E+00
  0.00000000E+00  0.00000000E+00  0.00000000E+00
  0.00000000E+00  0.00000000E+00  0.00000000E+00
  0.00000000E+00  0.00000000E+00  0.00000000E+00
  0.00000000E+00  0.00000000E+00  0.00000000E+00
  0.00000000E+00  0.00000000E+00  0.00000000E+00
  0.00000000E+00  0.00000000E+00  0.00000000E+00
  0.00000000E+00  0.00000000E+00  0.00000000E+00
  0.00000000E+00  0.00000000E+00  0.00000000E+00
  0.00000000E+00  0.00000000E+00  0.00000000E+00
  0.00000000E+00  0.00000000E+00  0.00000000E+00
  0.00000000E+00  0.00000000E+00  0.00000000E+00
  0.00000000E+00  0.00000000E+00  0.00000000E+00
  0.00000000E+00  0.00000000E+00  0.00000000E+00
  0.00000000E+00  0.00000000E+00  0.00000000E+00
  0.00000000E+00  0.00000000E+00  0.00000000E+00
  0.00000000E+00  0.00000000E+00  0.00000000E+00
  0.00000000E+00  0.00000000E+00  0.00000000E+00
  0.00000000E+00  0.00000000E+00  0.00000000E+00
  0.00000000E+00  0.00000000E+00  0.00000000E+00
