OT hollow                               
   1.00000000000000     
     2.5811541392653616   -1.5324138013876256    0.0027477723695831
    -0.0365325771383558    3.0015513008946511   -0.0027477716826384
0.0222045901268964 -0.0384594709818474 43.6667927202024710
   O    Mg   Al
    10     9     7
Selective dynamics
Direct
  0.5086231663828626  0.4913768335914011  0.2683723440368232   T   T   T
  0.5076478891237582  0.4923521108753680  0.4400140073317167   T   T   T
  0.4923500303585298  0.5076499696424368  0.6120341941716024   T   T   T
  0.4913868556315194  0.5086131443981244  0.7836667498295580   T   T   T
  0.8506168273730091  0.1493831726238787  0.3253876071228304   T   T   T
  0.1792604902393021  0.8207395097598453  0.3827016531654128   T   T   T
  0.8357582543300165  0.1642417456703952  0.4973468994691294   T   T   T
  0.1642383534035866  0.8357616465960653  0.5547020030456395   T   T   T
  0.8207401124966791  0.1792598875046499  0.6693448860330018   T   T   T
  0.1493851228064105  0.8506148771983002  0.7266559799016848   T   T   T
  0.5148893202550218  0.4851106797512952  0.3540671619651211   T   T   T
  0.4999993840085761  0.5000006159914168  0.5260240972289338   T   T   T
  0.4851139140860752  0.5148860859082757  0.6979764937794860   T   T   T
  0.1873593938181767  0.8126406063575120  0.2967947857272640   T   T   T
  0.8435579195269578  0.1564420804667676  0.4113674808717347   T   T   T
  0.1716542760245124  0.8283457239751825  0.4686783628759748   T   T   T
  0.8283444563511605  0.1716555436490953  0.5833692283768871   T   T   T
  0.1564430653060053  0.8435569346999137  0.6406785067077697   T   T   T
  0.8126452971601329  0.1873547026609097  0.7552458156431405   T   T   T
  0.9999862925831188  0.0000137073836418  0.0261622610442186   T   T   T
  0.9967979330724933  0.0032020667857390  0.2345737201743086   T   T   T
  0.6950014235343714  0.3049985764913435  0.1824877044851692   T   T   T
  0.3291168874943375  0.6708831125017402  0.0795597710360963   T   T   T
  0.0031983132480233  0.9968016868859284  0.8174626317199427   T   T   T
  0.6708606086611792  0.3291393913782060  0.9727702408495336   T   T   T
  0.3050244127241973  0.6949755872525396  0.8695224134070378   T   T   T
 
  0.00000000E+00  0.00000000E+00  0.00000000E+00
  0.00000000E+00  0.00000000E+00  0.00000000E+00
  0.00000000E+00  0.00000000E+00  0.00000000E+00
  0.00000000E+00  0.00000000E+00  0.00000000E+00
  0.00000000E+00  0.00000000E+00  0.00000000E+00
  0.00000000E+00  0.00000000E+00  0.00000000E+00
  0.00000000E+00  0.00000000E+00  0.00000000E+00
  0.00000000E+00  0.00000000E+00  0.00000000E+00
  0.00000000E+00  0.00000000E+00  0.00000000E+00
  0.00000000E+00  0.00000000E+00  0.00000000E+00
  0.00000000E+00  0.00000000E+00  0.00000000E+00
  0.00000000E+00  0.00000000E+00  0.00000000E+00
  0.00000000E+00  0.00000000E+00  0.00000000E+00
  0.00000000E+00  0.00000000E+00  0.00000000E+00
  0.00000000E+00  0.00000000E+00  0.00000000E+00
  0.00000000E+00  0.00000000E+00  0.00000000E+00
  0.00000000E+00  0.00000000E+00  0.00000000E+00
  0.00000000E+00  0.00000000E+00  0.00000000E+00
  0.00000000E+00  0.00000000E+00  0.00000000E+00
  0.00000000E+00  0.00000000E+00  0.00000000E+00
  0.00000000E+00  0.00000000E+00  0.00000000E+00
  0.00000000E+00  0.00000000E+00  0.00000000E+00
  0.00000000E+00  0.00000000E+00  0.00000000E+00
  0.00000000E+00  0.00000000E+00  0.00000000E+00
  0.00000000E+00  0.00000000E+00  0.00000000E+00
  0.00000000E+00  0.00000000E+00  0.00000000E+00
