Layer                                   
   1.00000000000000     
     2.5753034101725314   -1.4868516770802194    0.0000000000000000
     0.0000000000000000    2.9737033541604387    0.0000000000000000
    -0.0000000000000009    0.0000000000000000   42.0358191971455923
   O    Mg   Al
    11    10     7
Selective dynamics
Direct
  0.3333330000000032  0.6666669999999968  0.2262248440437700   T   T   T
  0.0000000000000000 -0.0000000000000000  0.3459930725765705   T   T   T
  0.3333330000000032  0.6666669999999968  0.4055028750462967   T   T   T
  0.0000000000000000 -0.0000000000000000  0.5245421935190652   T   T   T
  0.3333330000000032  0.6666669999999968  0.5840729414045972   T   T   T
  0.0000000000000000 -0.0000000000000000  0.7030841223111413   T   T   T
  0.3333330000000032  0.6666669999999968  0.7626098082075715   T   T   T
  0.6666669999999968  0.3333330000000032  0.2864706750987340   T   T   T
  0.6666669999999968  0.3333330000000032  0.4650094599647476   T   T   T
  0.6666669999999968  0.3333330000000032  0.6435765486392667   T   T   T
  0.6666669999999968  0.3333330000000032  0.8228650148631110   T   T   T
  0.0000000000000000 -0.0000000000000000  0.2567733717272733   T   T   T
  0.0000000000000000 -0.0000000000000000  0.4352738303170519   T   T   T
  0.0000000000000000 -0.0000000000000000  0.6138103466081846   T   T   T
  0.0000000000000000 -0.0000000000000000  0.7923054692305177   T   T   T
  0.6666669999999968  0.3333330000000032  0.3757659832109707   T   T   T
  0.6666669999999968  0.3333330000000032  0.5543070118949230   T   T   T
  0.6666669999999968  0.3333330000000032  0.7328330110473699   T   T   T
  0.3333330000000032  0.6666669999999968  0.3162544965029563   T   T   T
  0.3333330000000032  0.6666669999999968  0.4947799183750444   T   T   T
  0.3333330000000032  0.6666669999999968  0.6733170820971048   T   T   T
  0.0000000000000000 -0.0000000000000000  0.0245400743686082   T   T   T
  0.0000000000000000 -0.0000000000000000  0.1908898812767924   T   T   T
  0.6666669999999968  0.3333330000000032  0.1369322729704176   T   T   T
  0.3333330000000032  0.6666669999999968  0.0803512300900874   T   T   T
  0.0000000000000000 -0.0000000000000000  0.8581849371247882   T   T   T
  0.6666669999999968  0.3333330000000032  0.9687299038048032   T   T   T
  0.3333330000000032  0.6666669999999968  0.9121506236782504   T   T   T
 
  0.00000000E+00  0.00000000E+00  0.00000000E+00
  0.00000000E+00  0.00000000E+00  0.00000000E+00
  0.00000000E+00  0.00000000E+00  0.00000000E+00
  0.00000000E+00  0.00000000E+00  0.00000000E+00
  0.00000000E+00  0.00000000E+00  0.00000000E+00
  0.00000000E+00  0.00000000E+00  0.00000000E+00
  0.00000000E+00  0.00000000E+00  0.00000000E+00
  0.00000000E+00  0.00000000E+00  0.00000000E+00
  0.00000000E+00  0.00000000E+00  0.00000000E+00
  0.00000000E+00  0.00000000E+00  0.00000000E+00
  0.00000000E+00  0.00000000E+00  0.00000000E+00
  0.00000000E+00  0.00000000E+00  0.00000000E+00
  0.00000000E+00  0.00000000E+00  0.00000000E+00
  0.00000000E+00  0.00000000E+00  0.00000000E+00
  0.00000000E+00  0.00000000E+00  0.00000000E+00
  0.00000000E+00  0.00000000E+00  0.00000000E+00
  0.00000000E+00  0.00000000E+00  0.00000000E+00
  0.00000000E+00  0.00000000E+00  0.00000000E+00
  0.00000000E+00  0.00000000E+00  0.00000000E+00
  0.00000000E+00  0.00000000E+00  0.00000000E+00
  0.00000000E+00  0.00000000E+00  0.00000000E+00
  0.00000000E+00  0.00000000E+00  0.00000000E+00
  0.00000000E+00  0.00000000E+00  0.00000000E+00
  0.00000000E+00  0.00000000E+00  0.00000000E+00
  0.00000000E+00  0.00000000E+00  0.00000000E+00
  0.00000000E+00  0.00000000E+00  0.00000000E+00
  0.00000000E+00  0.00000000E+00  0.00000000E+00
  0.00000000E+00  0.00000000E+00  0.00000000E+00
