Layer                                   
   1.00000000000000     
     2.5753034101725314   -1.4868516770802194    0.0000000000000000
     0.0000000000000000    2.9737033541604387    0.0000000000000000
-0.0000000000000009 0.0000000000000000 42.0358191971455897
   O    Mg   Al
    11    10     7
Selective dynamics
Direct
  0.3333330000000032  0.6666669999999968  0.2242777935298301   T   T   T
  0.0000000000000000  0.0000000000000000  0.3448265787897423   T   T   T
  0.3333330000000032  0.6666669999999968  0.4047208929640462   T   T   T
  0.0000000000000000  0.0000000000000000  0.5245436541707527   T   T   T
  0.3333330000000032  0.6666669999999968  0.5844667316424940   T   T   T
  0.0000000000000000  0.0000000000000000  0.7042608306288184   T   T   T
  0.3333330000000032  0.6666669999999968  0.7641445269503416   T   T   T
  0.6666669999999968  0.3333330000000032  0.2849463561252876   T   T   T
  0.6666669999999968  0.3333330000000032  0.4646150504042554   T   T   T
  0.6666669999999968  0.3333330000000032  0.6443656087474117   T   T   T
  0.6666669999999968  0.3333330000000032  0.8248142648627637   T   T   T
  0.0000000000000000  0.0000000000000000  0.2550710938894834   T   T   T
  0.0000000000000000  0.0000000000000000  0.4346477535064407   T   T   T
  0.0000000000000000  0.0000000000000000  0.6144255988010286   T   T   T
  0.0000000000000000  0.0000000000000000  0.7940074150608015   T   T   T
  0.6666669999999968  0.3333330000000032  0.3747645366254501   T   T   T
  0.6666669999999968  0.3333330000000032  0.5544956735654524   T   T   T
  0.6666669999999968  0.3333330000000032  0.7341867811424672   T   T   T
  0.3333330000000032  0.6666669999999968  0.3149042541389966   T   T   T
  0.3333330000000032  0.6666669999999968  0.4945765806517767   T   T   T
  0.3333330000000032  0.6666669999999968  0.6743055422626775   T   T   T
  0.0000000000000000  0.0000000000000000  0.0245376602181320   T   T   T
  0.0000000000000000  0.0000000000000000  0.1888130351675120   T   T   T
  0.6666669999999968  0.3333330000000032  0.1356703544590012   T   T   T
  0.3333330000000032  0.6666669999999968  0.0798515747943517   T   T   T
  0.0000000000000000  0.0000000000000000  0.8602703750836066   T   T   T
  0.6666669999999968  0.3333330000000032  0.9692292968559932   T   T   T
  0.3333330000000032  0.6666669999999968  0.9134111849610922   T   T   T
 
  0.00000000E+00  0.00000000E+00  0.00000000E+00
  0.00000000E+00  0.00000000E+00  0.00000000E+00
  0.00000000E+00  0.00000000E+00  0.00000000E+00
  0.00000000E+00  0.00000000E+00  0.00000000E+00
  0.00000000E+00  0.00000000E+00  0.00000000E+00
  0.00000000E+00  0.00000000E+00  0.00000000E+00
  0.00000000E+00  0.00000000E+00  0.00000000E+00
  0.00000000E+00  0.00000000E+00  0.00000000E+00
  0.00000000E+00  0.00000000E+00  0.00000000E+00
  0.00000000E+00  0.00000000E+00  0.00000000E+00
  0.00000000E+00  0.00000000E+00  0.00000000E+00
  0.00000000E+00  0.00000000E+00  0.00000000E+00
  0.00000000E+00  0.00000000E+00  0.00000000E+00
  0.00000000E+00  0.00000000E+00  0.00000000E+00
  0.00000000E+00  0.00000000E+00  0.00000000E+00
  0.00000000E+00  0.00000000E+00  0.00000000E+00
  0.00000000E+00  0.00000000E+00  0.00000000E+00
  0.00000000E+00  0.00000000E+00  0.00000000E+00
  0.00000000E+00  0.00000000E+00  0.00000000E+00
  0.00000000E+00  0.00000000E+00  0.00000000E+00
  0.00000000E+00  0.00000000E+00  0.00000000E+00
  0.00000000E+00  0.00000000E+00  0.00000000E+00
  0.00000000E+00  0.00000000E+00  0.00000000E+00
  0.00000000E+00  0.00000000E+00  0.00000000E+00
  0.00000000E+00  0.00000000E+00  0.00000000E+00
  0.00000000E+00  0.00000000E+00  0.00000000E+00
  0.00000000E+00  0.00000000E+00  0.00000000E+00
  0.00000000E+00  0.00000000E+00  0.00000000E+00
