MgO(1 1 1 (2)                           
   1.00000000000000     
     2.1244360000000002   -2.1244360000000002    0.0000000000000000
     0.0000000000000000    2.1244360000000002   -2.1244360000000002
    21.4068669999999983   21.4068669999999983   21.4068669999999983
   O    Mg
     9    10
Selective dynamics
Direct
 -0.0000000000000000 -0.0000000000000000  0.1263686603694205   T   T   T
  0.3333330000000032  0.6666669999999968  0.1925283245066595   T   T   T
  0.0000000000000000  0.0000000000000000  0.3246930000000035   T   T   T
  0.3333330000000032  0.6666669999999968  0.3907667042834560   T   T   T
 -0.0000000000000000  0.0000000000000000  0.5230173396305794   T   T   T
  0.3333330000000032  0.6666669999999968  0.5890927497954290   T   T   T
  0.6666669999999968  0.3333330000000032  0.0602932502045711   T   T   T
  0.6666669999999968  0.3333330000000032  0.2586182957165463   T   T   T
  0.6666669999999968  0.3333330000000032  0.4568576754933404   T   T   T
  0.0000000000000000  0.0000000000000000  0.0258369766708675   T   T   T
  0.0000000000000000  0.0000000000000000  0.2255748784689229   T   T   T
 -0.0000000000000000  0.0000000000000000  0.4238111215310769   T   T   T
  0.0000000000000000 -0.0000000000000000  0.6235480233291278   T   T   T
  0.6666669999999968  0.3333330000000032  0.1594551896387589   T   T   T
  0.6666669999999968  0.3333330000000032  0.3577231844090017   T   T   T
  0.6666669999999968  0.3333330000000032  0.5561045701153297   T   T   T
  0.3333330000000032  0.6666669999999968  0.0932814298846700   T   T   T
  0.3333330000000032  0.6666669999999968  0.2916628155909980   T   T   T
  0.3333330000000032  0.6666669999999968  0.4899298103612433   T   T   T
 
  0.00000000E+00  0.00000000E+00  0.00000000E+00
  0.00000000E+00  0.00000000E+00  0.00000000E+00
  0.00000000E+00  0.00000000E+00  0.00000000E+00
  0.00000000E+00  0.00000000E+00  0.00000000E+00
  0.00000000E+00  0.00000000E+00  0.00000000E+00
  0.00000000E+00  0.00000000E+00  0.00000000E+00
  0.00000000E+00  0.00000000E+00  0.00000000E+00
  0.00000000E+00  0.00000000E+00  0.00000000E+00
  0.00000000E+00  0.00000000E+00  0.00000000E+00
  0.00000000E+00  0.00000000E+00  0.00000000E+00
  0.00000000E+00  0.00000000E+00  0.00000000E+00
  0.00000000E+00  0.00000000E+00  0.00000000E+00
  0.00000000E+00  0.00000000E+00  0.00000000E+00
  0.00000000E+00  0.00000000E+00  0.00000000E+00
  0.00000000E+00  0.00000000E+00  0.00000000E+00
  0.00000000E+00  0.00000000E+00  0.00000000E+00
  0.00000000E+00  0.00000000E+00  0.00000000E+00
  0.00000000E+00  0.00000000E+00  0.00000000E+00
  0.00000000E+00  0.00000000E+00  0.00000000E+00
