Layer                                   
   1.00000000000000     
     2.5753034101725314   -1.4868516770802194    0.0000000000000000
     0.0000000000000000    2.9737033541604387    0.0000000000000000
    -0.0000000000000009    0.0000000000000000   45.3007371930403906
   O    Mg   Al
    11    10     7
Selective dynamics
Direct
  0.3333330000000032  0.6666669999999968  0.2488512357637682   T   T   T
 -0.0000000000000000 -0.0000000000000000  0.3594261192998491   T   T   T
  0.3333330000000032  0.6666669999999968  0.4144384416390008   T   T   T
  0.0000000000000000  0.0000000000000000  0.5245411868195120   T   T   T
  0.3333330000000032  0.6666669999999968  0.5796050473662216   T   T   T
  0.0000000000000000  0.0000000000000000  0.6896521437583281   T   T   T
  0.3333330000000032  0.6666669999999968  0.7446505839565948   T   T   T
  0.6666669999999968  0.3333330000000032  0.3044301749785104   T   T   T
  0.6666669999999968  0.3333330000000032  0.4694772767975126   T   T   T
  0.6666669999999968  0.3333330000000032  0.6346423256839121   T   T   T
  0.6666669999999968  0.3333330000000032  0.8002300335580139   T   T   T
 -0.0000000000000000 -0.0000000000000000  0.2770381089263193   T   T   T
 -0.0000000000000000 -0.0000000000000000  0.4419566547006927   T   T   T
 -0.0000000000000000 -0.0000000000000000  0.6071247634845031   T   T   T
  0.0000000000000000 -0.0000000000000000  0.7720432108160228   T   T   T
  0.6666669999999968  0.3333330000000032  0.3869341297737240   T   T   T
  0.6666669999999968  0.3333330000000032  0.5520718693112279   T   T   T
  0.6666669999999968  0.3333330000000032  0.7171420415458133   T   T   T
  0.3333330000000032  0.6666669999999968  0.3319438865557062   T   T   T
  0.3333330000000032  0.6666669999999968  0.4970082351922253   T   T   T
  0.3333330000000032  0.6666669999999968  0.6621513808912988   T   T   T
 -0.0000000000000000 -0.0000000000000000  0.0245422583034411   T   T   T
 -0.0000000000000000 -0.0000000000000000  0.2162792446597984   T   T   T
  0.6666669999999968  0.3333330000000032  0.1674921185384448   T   T   T
  0.3333330000000032  0.6666669999999968  0.0760863777980069   T   T   T
 -0.0000000000000000 -0.0000000000000000  0.8328044956660782   T   T   T
  0.6666669999999968  0.3333330000000032  0.9729963439307732   T   T   T
  0.3333330000000032  0.6666669999999968  0.8815913102847224   T   T   T
 
  0.00000000E+00  0.00000000E+00  0.00000000E+00
  0.00000000E+00  0.00000000E+00  0.00000000E+00
  0.00000000E+00  0.00000000E+00  0.00000000E+00
  0.00000000E+00  0.00000000E+00  0.00000000E+00
  0.00000000E+00  0.00000000E+00  0.00000000E+00
  0.00000000E+00  0.00000000E+00  0.00000000E+00
  0.00000000E+00  0.00000000E+00  0.00000000E+00
  0.00000000E+00  0.00000000E+00  0.00000000E+00
  0.00000000E+00  0.00000000E+00  0.00000000E+00
  0.00000000E+00  0.00000000E+00  0.00000000E+00
  0.00000000E+00  0.00000000E+00  0.00000000E+00
  0.00000000E+00  0.00000000E+00  0.00000000E+00
  0.00000000E+00  0.00000000E+00  0.00000000E+00
  0.00000000E+00  0.00000000E+00  0.00000000E+00
  0.00000000E+00  0.00000000E+00  0.00000000E+00
  0.00000000E+00  0.00000000E+00  0.00000000E+00
  0.00000000E+00  0.00000000E+00  0.00000000E+00
  0.00000000E+00  0.00000000E+00  0.00000000E+00
  0.00000000E+00  0.00000000E+00  0.00000000E+00
  0.00000000E+00  0.00000000E+00  0.00000000E+00
  0.00000000E+00  0.00000000E+00  0.00000000E+00
  0.00000000E+00  0.00000000E+00  0.00000000E+00
  0.00000000E+00  0.00000000E+00  0.00000000E+00
  0.00000000E+00  0.00000000E+00  0.00000000E+00
  0.00000000E+00  0.00000000E+00  0.00000000E+00
  0.00000000E+00  0.00000000E+00  0.00000000E+00
  0.00000000E+00  0.00000000E+00  0.00000000E+00
  0.00000000E+00  0.00000000E+00  0.00000000E+00
