Layer                                   
   1.00000000000000     
     2.5925900057573852   -1.4952752265876454    0.0518951647512091
     0.0013482762012733    2.9928857367913029   -0.0518951489622574
0.4089676063014350 -0.7083524578609989 45.1242186793228564
   O    Mg   Al
     9    10     7
Selective dynamics
Direct
  0.5555926036649251  0.4444073963429545  0.3559227213817001   T   T   T
  0.5000117455059467  0.4999882544933076  0.5257878926130335   T   T   T
  0.4444293722787903  0.5555706277119155  0.6956547024934674   T   T   T
  0.2408115800687761  0.7591884199197060  0.2993079845602389   T   T   T
  0.8703930223998613  0.1296069776050984  0.4125591296563925   T   T   T
  0.1852084597328213  0.8147915402657645  0.4691597741974975   T   T   T
  0.8148153407891101  0.1851846592110533  0.5824158301818002   T   T   T
  0.1296300447288349  0.8703699552647919  0.6390171903740836   T   T   T
  0.7592080882878327  0.2407919117244106  0.7522711774555141   T   T   T
  0.5836538171660149  0.4163461828395201  0.2702123740884630   T   T   T
  0.5278026605299250  0.4721973394731804  0.4408474784989467   T   T   T
  0.4722206576859220  0.5277793423126352  0.6107304382959928   T   T   T
  0.4163658231523023  0.5836341768393344  0.7813666133018581   T   T   T
  0.8982111844257583  0.1017888155889213  0.3275735361618943   T   T   T
  0.2129994891110671  0.7870005108962942  0.3842278742740771   T   T   T
  0.8426127050187069  0.1573872949833466  0.4974622827999381   T   T   T
  0.1574116899907724  0.8425883100082897  0.5541118829854764   T   T   T
  0.7870226162857666  0.2129773837083356  0.6673502948444211   T   T   T
  0.1018100314075483  0.8981899685796123  0.7240039484479157   T   T   T
  0.9999439561575592  0.0000560438367282  0.0257921739274955   T   T   T
  0.9369163304929616  0.0630836695216901  0.2097554395020905   T   T   T
  0.6249563324702330  0.3750436675043582  0.1457068414823401   T   T   T
  0.3138798150973359  0.6861201848992531  0.0841076311199006   T   T   T
  0.0630960013096040  0.9369039986735493  0.8418235003383062   T   T   T
  0.6860296856882039  0.3139703143229590  0.9674748593160974   T   T   T
  0.3749669465534351  0.6250330534729757  0.9058714277010028   T   T   T
 
  0.00000000E+00  0.00000000E+00  0.00000000E+00
  0.00000000E+00  0.00000000E+00  0.00000000E+00
  0.00000000E+00  0.00000000E+00  0.00000000E+00
  0.00000000E+00  0.00000000E+00  0.00000000E+00
  0.00000000E+00  0.00000000E+00  0.00000000E+00
  0.00000000E+00  0.00000000E+00  0.00000000E+00
  0.00000000E+00  0.00000000E+00  0.00000000E+00
  0.00000000E+00  0.00000000E+00  0.00000000E+00
  0.00000000E+00  0.00000000E+00  0.00000000E+00
  0.00000000E+00  0.00000000E+00  0.00000000E+00
  0.00000000E+00  0.00000000E+00  0.00000000E+00
  0.00000000E+00  0.00000000E+00  0.00000000E+00
  0.00000000E+00  0.00000000E+00  0.00000000E+00
  0.00000000E+00  0.00000000E+00  0.00000000E+00
  0.00000000E+00  0.00000000E+00  0.00000000E+00
  0.00000000E+00  0.00000000E+00  0.00000000E+00
  0.00000000E+00  0.00000000E+00  0.00000000E+00
  0.00000000E+00  0.00000000E+00  0.00000000E+00
  0.00000000E+00  0.00000000E+00  0.00000000E+00
  0.00000000E+00  0.00000000E+00  0.00000000E+00
  0.00000000E+00  0.00000000E+00  0.00000000E+00
  0.00000000E+00  0.00000000E+00  0.00000000E+00
  0.00000000E+00  0.00000000E+00  0.00000000E+00
  0.00000000E+00  0.00000000E+00  0.00000000E+00
  0.00000000E+00  0.00000000E+00  0.00000000E+00
  0.00000000E+00  0.00000000E+00  0.00000000E+00
