Layer                                   
   1.00000000000000     
     2.5925900057573852   -1.4952752265876454    0.0518951647512091
     0.0013482762012733    2.9928857367913029   -0.0518951489622574
     0.4089676063014350   -0.7083524578609989   47.5415875371437266
   O    Mg   Al
     9    10     7
Selective dynamics
Direct
  0.5525234979302115  0.4474765020776679  0.3702526253289912   T   T   T
  0.5000234052458626  0.4999765947533908  0.5257589259780118   T   T   T
  0.4475208751499775  0.5524791248407287  0.6812713737220311   T   T   T
  0.2366799563920337  0.7633200435964413  0.3185623667580260   T   T   T
  0.8683558012022039  0.1316441988027554  0.4220680970797727   T   T   T
  0.1841922065968569  0.8158077934017290  0.4739044405744557   T   T   T
  0.8158540136870289  0.1841459863131346  0.5776157133726628   T   T   T
  0.1316901128547899  0.8683098871388365  0.6294521785971503   T   T   T
  0.7633663763821138  0.2366336236301289  0.7329590011015011   T   T   T
  0.5789744202181456  0.4210255797873896  0.2920540012292001   T   T   T
  0.5262745628031711  0.4737254371999270  0.4479937273549761   T   T   T
  0.4737710712911165  0.5262289287074412  0.6035276768535074   T   T   T
  0.4210715640343031  0.5789284359573411  0.7594694771611256   T   T   T
  0.8946102252641225  0.1053897747505646  0.3443553865793383   T   T   T
  0.2104387866110014  0.7895612133963598  0.3961661745190237   T   T   T
  0.8421090428034523  0.1578909571986011  0.4998328642939745   T   T   T
  0.1579363295981740  0.8420636704008884  0.5516887540182540   T   T   T
  0.7896058955339761  0.2103941044601265  0.6553570687996603   T   T   T
  0.1054372735903799  0.8945627263967734  0.7071614250932293   T   T   T
  0.9999038863635105  0.0000961136307767  0.0259082651576183   T   T   T
  0.9296060481078215  0.0703939519068299  0.2412176635525341   T   T   T
  0.6347078614703524  0.3652921385042387  0.1190505027816918   T   T   T
  0.3175373479408490  0.6824626520557402  0.0720110333622584   T   T   T
  0.0704399010269529  0.9295600989562001  0.8103040839801511   T   T   T
  0.6822702127012956  0.3177297873098668  0.9798055580153028   T   T   T
  0.3650993252003389  0.6349006748260720  0.9327666147354823   T   T   T
 
  0.00000000E+00  0.00000000E+00  0.00000000E+00
  0.00000000E+00  0.00000000E+00  0.00000000E+00
  0.00000000E+00  0.00000000E+00  0.00000000E+00
  0.00000000E+00  0.00000000E+00  0.00000000E+00
  0.00000000E+00  0.00000000E+00  0.00000000E+00
  0.00000000E+00  0.00000000E+00  0.00000000E+00
  0.00000000E+00  0.00000000E+00  0.00000000E+00
  0.00000000E+00  0.00000000E+00  0.00000000E+00
  0.00000000E+00  0.00000000E+00  0.00000000E+00
  0.00000000E+00  0.00000000E+00  0.00000000E+00
  0.00000000E+00  0.00000000E+00  0.00000000E+00
  0.00000000E+00  0.00000000E+00  0.00000000E+00
  0.00000000E+00  0.00000000E+00  0.00000000E+00
  0.00000000E+00  0.00000000E+00  0.00000000E+00
  0.00000000E+00  0.00000000E+00  0.00000000E+00
  0.00000000E+00  0.00000000E+00  0.00000000E+00
  0.00000000E+00  0.00000000E+00  0.00000000E+00
  0.00000000E+00  0.00000000E+00  0.00000000E+00
  0.00000000E+00  0.00000000E+00  0.00000000E+00
  0.00000000E+00  0.00000000E+00  0.00000000E+00
  0.00000000E+00  0.00000000E+00  0.00000000E+00
  0.00000000E+00  0.00000000E+00  0.00000000E+00
  0.00000000E+00  0.00000000E+00  0.00000000E+00
  0.00000000E+00  0.00000000E+00  0.00000000E+00
  0.00000000E+00  0.00000000E+00  0.00000000E+00
  0.00000000E+00  0.00000000E+00  0.00000000E+00
