Layer                                   
   1.00000000000000     
     2.5925900057573852   -1.4952752265876454    0.0518951647512091
     0.0013482762012733    2.9928857367913029   -0.0518951489622574
0.4089676063014350 -0.7083524578609989 47.5415875371437237
   O    Mg   Al
     9    10     7
Selective dynamics
Direct
  0.5527288998111070  0.4472711001967730  0.3691230118847822   T   T   T
  0.5000205161857976  0.4999794838134564  0.5257662843848185   T   T   T
  0.4473180772617624  0.5526819227289437  0.6823960324005612   T   T   T
  0.2369648252235261  0.7630351747649489  0.3170473737404722   T   T   T
  0.8684789486592369  0.1315210513457227  0.4213301253057273   T   T   T
  0.1842445385528559  0.8157554614457301  0.4735506867901022   T   T   T
  0.8157987270796184  0.1842012729205450  0.5779795316341836   T   T   T
  0.1315661789802030  0.8684338210134235  0.6301965083554191   T   T   T
  0.7630822949279698  0.2369177050842729  0.7344706498850950   T   T   T
  0.5792979173750091  0.4207020826305260  0.2903496439969163   T   T   T
  0.5263628580368257  0.4736371419662722  0.4474335235652619   T   T   T
  0.4736847085426918  0.5263152914558658  0.6040853370768996   T   T   T
  0.4207455707014462  0.5792544292901979  0.7611781825846022   T   T   T
  0.8948520119590392  0.1051479880556477  0.3430422986245550   T   T   T
  0.2105996598013023  0.7894003402060589  0.3952276622718218   T   T   T
  0.8421357731309604  0.1578642268710931  0.4996479136145814   T   T   T
  0.1579139140911446  0.8420860859079176  0.5518598553969465   T   T   T
  0.7894435624278340  0.2105564375662685  0.6563027570642029   T   T   T
  0.1051877573108963  0.8948122426762571  0.7084973702859769   T   T   T
  0.9999049483553204  0.0000950516389668  0.0259039651409343   T   T   T
  0.9300411621652326  0.0699588378494189  0.2391280952484706   T   T   T
  0.6345016941365340  0.3654983058380569  0.1201165787781117   T   T   T
  0.3174254507850955  0.6825745492114939  0.0725828860185824   T   T   T
  0.0700080785706259  0.9299919214125271  0.8123826137235305   T   T   T
  0.6823843016057969  0.3176156984053657  0.9792247895458007   T   T   T
  0.3653076243222177  0.6346923757041931  0.9316913226815817   T   T   T
 
  0.00000000E+00  0.00000000E+00  0.00000000E+00
  0.00000000E+00  0.00000000E+00  0.00000000E+00
  0.00000000E+00  0.00000000E+00  0.00000000E+00
  0.00000000E+00  0.00000000E+00  0.00000000E+00
  0.00000000E+00  0.00000000E+00  0.00000000E+00
  0.00000000E+00  0.00000000E+00  0.00000000E+00
  0.00000000E+00  0.00000000E+00  0.00000000E+00
  0.00000000E+00  0.00000000E+00  0.00000000E+00
  0.00000000E+00  0.00000000E+00  0.00000000E+00
  0.00000000E+00  0.00000000E+00  0.00000000E+00
  0.00000000E+00  0.00000000E+00  0.00000000E+00
  0.00000000E+00  0.00000000E+00  0.00000000E+00
  0.00000000E+00  0.00000000E+00  0.00000000E+00
  0.00000000E+00  0.00000000E+00  0.00000000E+00
  0.00000000E+00  0.00000000E+00  0.00000000E+00
  0.00000000E+00  0.00000000E+00  0.00000000E+00
  0.00000000E+00  0.00000000E+00  0.00000000E+00
  0.00000000E+00  0.00000000E+00  0.00000000E+00
  0.00000000E+00  0.00000000E+00  0.00000000E+00
  0.00000000E+00  0.00000000E+00  0.00000000E+00
  0.00000000E+00  0.00000000E+00  0.00000000E+00
  0.00000000E+00  0.00000000E+00  0.00000000E+00
  0.00000000E+00  0.00000000E+00  0.00000000E+00
  0.00000000E+00  0.00000000E+00  0.00000000E+00
  0.00000000E+00  0.00000000E+00  0.00000000E+00
  0.00000000E+00  0.00000000E+00  0.00000000E+00
