MgO19                                   
   1.00000000000000     
     2.1244360000000002   -2.1244350000000001    0.0000000000000000
     0.0000000000000000    2.1244360000000002   -2.1244360000000002
    21.4068669999999983   21.4068669999999983   21.4068669999999983
   O    Mg
     9    10
Selective dynamics
Direct
 -0.0000000000000000 -0.0000000000000000  0.1257468474384830   T   T   T
  0.3333330000000032  0.6666669999999968  0.1922623314361755   T   T   T
  0.0000000000000000  0.0000000000000000  0.3246930000000035   F   F   F
  0.3333330000000032  0.6666669999999968  0.3908529999999999   F   F   F
  0.0000000000000000  0.0000000000000000  0.5231750000000019   F   F   F
  0.3333330000000032  0.6666669999999968  0.5893349999999984   F   F   F
  0.6666669999999968  0.3333330000000032  0.0578247552073399   T   T   T
  0.6666669999999968  0.3333330000000032  0.2585320000000024   F   F   F
  0.6666669999999968  0.3333330000000032  0.4570140000000009   F   F   F
 -0.0000000000000000 -0.0000000000000000  0.0330510858055853   T   T   T
 -0.0000000000000000 -0.0000000000000000  0.2254993529358978   T   T   T
  0.0000000000000000  0.0000000000000000  0.4239340000000027   F   F   F
  0.0000000000000000  0.0000000000000000  0.6224149999999966   F   F   F
  0.6666669999999968  0.3333330000000032  0.1594819505424810   T   T   T
  0.6666669999999968  0.3333330000000032  0.3577730000000017   F   F   F
  0.6666669999999968  0.3333330000000032  0.5562550000000002   F   F   F
  0.3333330000000032  0.6666669999999968  0.0943645937904021   T   T   T
  0.3333330000000032  0.6666669999999968  0.2916129999999981   F   F   F
  0.3333330000000032  0.6666669999999968  0.4900939999999991   F   F   F
 
  0.00000000E+00  0.00000000E+00  0.00000000E+00
  0.00000000E+00  0.00000000E+00  0.00000000E+00
  0.00000000E+00  0.00000000E+00  0.00000000E+00
  0.00000000E+00  0.00000000E+00  0.00000000E+00
  0.00000000E+00  0.00000000E+00  0.00000000E+00
  0.00000000E+00  0.00000000E+00  0.00000000E+00
  0.00000000E+00  0.00000000E+00  0.00000000E+00
  0.00000000E+00  0.00000000E+00  0.00000000E+00
  0.00000000E+00  0.00000000E+00  0.00000000E+00
  0.00000000E+00  0.00000000E+00  0.00000000E+00
  0.00000000E+00  0.00000000E+00  0.00000000E+00
  0.00000000E+00  0.00000000E+00  0.00000000E+00
  0.00000000E+00  0.00000000E+00  0.00000000E+00
  0.00000000E+00  0.00000000E+00  0.00000000E+00
  0.00000000E+00  0.00000000E+00  0.00000000E+00
  0.00000000E+00  0.00000000E+00  0.00000000E+00
  0.00000000E+00  0.00000000E+00  0.00000000E+00
  0.00000000E+00  0.00000000E+00  0.00000000E+00
  0.00000000E+00  0.00000000E+00  0.00000000E+00
