Layer (20)                              
   1.00000000000000     
     2.5844879337095619   -1.4921433729288078    0.0000000000000000
     0.0000000000000000    2.9842867458576157    0.0000000000000001
     0.0000000000000031    0.0000000000000058   79.7630318285646354
   O    Mg
     9    10
Selective dynamics
Direct
  0.0000000000000000  0.0000000000000000  0.4979163070131278   T   T   T
  0.3333330000000032  0.6666669999999968  0.5286845531391862   T   T   T
  0.0000000000000000  0.0000000000000000  0.5902043836503807   T   T   T
  0.3333330000000032  0.6666669999999968  0.6209941923098228   T   T   T
  0.0000000000000000  0.0000000000000000  0.6825809191567700   T   T   T
  0.3333330000000032  0.6666669999999968  0.7133451190581397   T   T   T
  0.6666669999999968  0.3333330000000032  0.4671274949299331   T   T   T
  0.6666669999999968  0.3333330000000032  0.5594368112468757   T   T   T
  0.6666669999999968  0.3333330000000032  0.6517823201530959   T   T   T
  0.0000000000000000  0.0000000000000000  0.4515654459587424   T   T   T
  0.0000000000000000  0.0000000000000000  0.5441967614395296   T   T   T
  0.0000000000000000  0.0000000000000000  0.6365308141593147   T   T   T
  0.0000000000000000  0.0000000000000000  0.7295498153475961   T   T   T
  0.6666669999999968  0.3333330000000032  0.5134423539184922   T   T   T
  0.6666669999999968  0.3333330000000032  0.6057404819755092   T   T   T
  0.6666669999999968  0.3333330000000032  0.6981269313668008   T   T   T
  0.3333330000000032  0.6666669999999968  0.4826730287954817   T   T   T
  0.3333330000000032  0.6666669999999968  0.5749538220835291   T   T   T
  0.3333330000000032  0.6666669999999968  0.6673260461383208   T   T   T
 
  0.00000000E+00  0.00000000E+00  0.00000000E+00
  0.00000000E+00  0.00000000E+00  0.00000000E+00
  0.00000000E+00  0.00000000E+00  0.00000000E+00
  0.00000000E+00  0.00000000E+00  0.00000000E+00
  0.00000000E+00  0.00000000E+00  0.00000000E+00
  0.00000000E+00  0.00000000E+00  0.00000000E+00
  0.00000000E+00  0.00000000E+00  0.00000000E+00
  0.00000000E+00  0.00000000E+00  0.00000000E+00
  0.00000000E+00  0.00000000E+00  0.00000000E+00
  0.00000000E+00  0.00000000E+00  0.00000000E+00
  0.00000000E+00  0.00000000E+00  0.00000000E+00
  0.00000000E+00  0.00000000E+00  0.00000000E+00
  0.00000000E+00  0.00000000E+00  0.00000000E+00
  0.00000000E+00  0.00000000E+00  0.00000000E+00
  0.00000000E+00  0.00000000E+00  0.00000000E+00
  0.00000000E+00  0.00000000E+00  0.00000000E+00
  0.00000000E+00  0.00000000E+00  0.00000000E+00
  0.00000000E+00  0.00000000E+00  0.00000000E+00
  0.00000000E+00  0.00000000E+00  0.00000000E+00
