Layer (20)                              
   1.00000000000000     
     2.5844879337095619   -1.4921433729288078    0.0000000000000000
    -0.0000000000000000    2.9842867458576157    0.0000000000000001
     0.0000000000000031    0.0000000000000058   79.7630318285646354
   O    Mg  
     9    10     
Selective dynamics
Direct
  0.0000000000000000  0.0000000000000000  0.4979163070131299   T   T   T
  0.3333330000000032  0.6666669999999968  0.5286845531391873   T   T   T
 -0.0000000000000000 -0.0000000000000000  0.5902043836503809   T   T   T
  0.3333330000000032  0.6666669999999968  0.6209941923098238   T   T   T
 -0.0000000000000000 -0.0000000000000000  0.6825809191567715   T   T   T
  0.3333330000000032  0.6666669999999968  0.7133451190581364   T   T   T
  0.6666669999999968  0.3333330000000032  0.4671274949299332   T   T   T
  0.6666669999999968  0.3333330000000032  0.5594368112468787   T   T   T
  0.6666669999999968  0.3333330000000032  0.6517823201530982   T   T   T
  0.0000000000000000  0.0000000000000000  0.4515654459587446   T   T   T
 -0.0000000000000000 -0.0000000000000000  0.5441967614395288   T   T   T
 -0.0000000000000000 -0.0000000000000000  0.6365308141593159   T   T   T
 -0.0000000000000000 -0.0000000000000000  0.7295498153475944   T   T   T
  0.6666669999999968  0.3333330000000032  0.5134423539184935   T   T   T
  0.6666669999999968  0.3333330000000032  0.6057404819755122   T   T   T
  0.6666669999999968  0.3333330000000032  0.6981269313668037   T   T   T
  0.3333330000000032  0.6666669999999968  0.4826730287954806   T   T   T
  0.3333330000000032  0.6666669999999968  0.5749538220835289   T   T   T
  0.3333330000000032  0.6666669999999968  0.6673260461383214   T   T   T
  
  0.00000000E+00  0.00000000E+00  0.00000000E+00
  0.00000000E+00  0.00000000E+00  0.00000000E+00
  0.00000000E+00  0.00000000E+00  0.00000000E+00
  0.00000000E+00  0.00000000E+00  0.00000000E+00
  0.00000000E+00  0.00000000E+00  0.00000000E+00
  0.00000000E+00  0.00000000E+00  0.00000000E+00
  0.00000000E+00  0.00000000E+00  0.00000000E+00
  0.00000000E+00  0.00000000E+00  0.00000000E+00
  0.00000000E+00  0.00000000E+00  0.00000000E+00
  0.00000000E+00  0.00000000E+00  0.00000000E+00
  0.00000000E+00  0.00000000E+00  0.00000000E+00
  0.00000000E+00  0.00000000E+00  0.00000000E+00
  0.00000000E+00  0.00000000E+00  0.00000000E+00
  0.00000000E+00  0.00000000E+00  0.00000000E+00
  0.00000000E+00  0.00000000E+00  0.00000000E+00
  0.00000000E+00  0.00000000E+00  0.00000000E+00
  0.00000000E+00  0.00000000E+00  0.00000000E+00
  0.00000000E+00  0.00000000E+00  0.00000000E+00
  0.00000000E+00  0.00000000E+00  0.00000000E+00
  0.00000000E+00  0.00000000E+00  0.00000000E+00
  0.00000000E+00  0.00000000E+00  0.00000000E+00
  0.00000000E+00  0.00000000E+00  0.00000000E+00
  0.00000000E+00  0.00000000E+00  0.00000000E+00
  0.00000000E+00  0.00000000E+00  0.00000000E+00
  0.00000000E+00  0.00000000E+00  0.00000000E+00
  0.00000000E+00  0.00000000E+00  0.00000000E+00
