Layer                                   
   1.00000000000000     
     2.5753034101725314   -1.4868516770802194    0.0000000000000000
     0.0000000000000000    2.9737033541604387    0.0000000000000000
    -0.0000000000000009    0.0000000000000000   41.2195896981718874
   O    Mg   Al
    11    10     7
Selective dynamics
Direct
  0.3333330000000032  0.6666669999999968  0.2226922564490516   T   T   T
  0.0000000000000000 -0.0000000000000000  0.3438685136222632   T   T   T
  0.3333330000000032  0.6666669999999968  0.4041222004451266   T   T   T
  0.0000000000000000 -0.0000000000000000  0.5245554046475709   T   T   T
  0.3333330000000032  0.6666669999999968  0.5847566479961324   T   T   T
  0.0000000000000000 -0.0000000000000000  0.7051916906699842   T   T   T
  0.3333330000000032  0.6666669999999968  0.7653827308961072   T   T   T
  0.6666669999999968  0.3333330000000032  0.2836695245569475   T   T   T
  0.6666669999999968  0.3333330000000032  0.4643487443205389   T   T   T
  0.6666669999999968  0.3333330000000032  0.6449646672638031   T   T   T
  0.6666669999999968  0.3333330000000032  0.8263810192484872   T   T   T
  0.0000000000000000 -0.0000000000000000  0.2536832084902166   T   T   T
  0.0000000000000000 -0.0000000000000000  0.4342274512277295   T   T   T
  0.0000000000000000 -0.0000000000000000  0.6148616424995048   T   T   T
  0.0000000000000000 -0.0000000000000000  0.7954121247386354   T   T   T
  0.6666669999999968  0.3333330000000032  0.3739989340917997   T   T   T
  0.6666669999999968  0.3333330000000032  0.5546470512228893   T   T   T
  0.6666669999999968  0.3333330000000032  0.7353001483191393   T   T   T
  0.3333330000000032  0.6666669999999968  0.3137889815612722   T   T   T
  0.3333330000000032  0.6666669999999968  0.4944407335736207   T   T   T
  0.3333330000000032  0.6666669999999968  0.6750860177270090   T   T   T
  0.0000000000000000 -0.0000000000000000  0.0245372425751329   T   T   T
  0.0000000000000000 -0.0000000000000000  0.1871012032176124   T   T   T
  0.6666669999999968  0.3333330000000032  0.1342433490937339   T   T   T
  0.3333330000000032  0.6666669999999968  0.0791514755982678   T   T   T
  0.0000000000000000 -0.0000000000000000  0.8619816184391850   T   T   T
  0.6666669999999968  0.3333330000000032  0.9699210138196911   T   T   T
  0.3333330000000032  0.6666669999999968  0.9148354036885548   T   T   T
 
  0.00000000E+00  0.00000000E+00  0.00000000E+00
  0.00000000E+00  0.00000000E+00  0.00000000E+00
  0.00000000E+00  0.00000000E+00  0.00000000E+00
  0.00000000E+00  0.00000000E+00  0.00000000E+00
  0.00000000E+00  0.00000000E+00  0.00000000E+00
  0.00000000E+00  0.00000000E+00  0.00000000E+00
  0.00000000E+00  0.00000000E+00  0.00000000E+00
  0.00000000E+00  0.00000000E+00  0.00000000E+00
  0.00000000E+00  0.00000000E+00  0.00000000E+00
  0.00000000E+00  0.00000000E+00  0.00000000E+00
  0.00000000E+00  0.00000000E+00  0.00000000E+00
  0.00000000E+00  0.00000000E+00  0.00000000E+00
  0.00000000E+00  0.00000000E+00  0.00000000E+00
  0.00000000E+00  0.00000000E+00  0.00000000E+00
  0.00000000E+00  0.00000000E+00  0.00000000E+00
  0.00000000E+00  0.00000000E+00  0.00000000E+00
  0.00000000E+00  0.00000000E+00  0.00000000E+00
  0.00000000E+00  0.00000000E+00  0.00000000E+00
  0.00000000E+00  0.00000000E+00  0.00000000E+00
  0.00000000E+00  0.00000000E+00  0.00000000E+00
  0.00000000E+00  0.00000000E+00  0.00000000E+00
  0.00000000E+00  0.00000000E+00  0.00000000E+00
  0.00000000E+00  0.00000000E+00  0.00000000E+00
  0.00000000E+00  0.00000000E+00  0.00000000E+00
  0.00000000E+00  0.00000000E+00  0.00000000E+00
  0.00000000E+00  0.00000000E+00  0.00000000E+00
  0.00000000E+00  0.00000000E+00  0.00000000E+00
  0.00000000E+00  0.00000000E+00  0.00000000E+00
