Layer (20) 
1.0 
2.536369 -1.464373 0.000000 
0.000000 2.928746 0.000000 
0.000000 0.000000 82.817586 
O Mg Al 
9 10 7 
Selective Dynamics
Direct 
-0.000000 0.000000 0.493574 T T T 
0.333333 0.666667 0.524744 T T T 
-0.000000 -0.000000 0.587085 T T T 
0.333333 0.666667 0.618256 T T T 
-0.000000 -0.000000 0.680597 T T T 
0.333333 0.666667 0.711767 T T T 
0.666667 0.333333 0.462403 T T T 
0.666667 0.333333 0.555915 T T T 
0.666667 0.333333 0.649426 T T T 
-0.000000 -0.000000 0.446818 T T T 
-0.000000 -0.000000 0.540330 T T T 
-0.000000 -0.000000 0.633841 T T T 
-0.000000 -0.000000 0.727353 T T T 
0.666667 0.333333 0.509159 T T T 
0.666667 0.333333 0.602671 T T T 
0.666667 0.333333 0.696182 T T T 
0.333333 0.666667 0.477988 T T T 
0.333333 0.666667 0.571500 T T T 
0.333333 0.666667 0.665012 T T T 
-0.000000 -0.000000 0.262384 T T T 
-0.000000 -0.000000 0.342466 T T T 
-0.000000 -0.000000 0.422666 T T T 
0.666667 0.333333 0.315772 T T T 
0.666667 0.333333 0.395854 T T T 
0.333333 0.666667 0.289078 T T T 
0.333333 0.666667 0.369160 T T T 
