Layer                                   
   1.00000000000000     
     2.5919820456764819   -1.4964810761798768    0.0000000000000000
     0.0000000000000001    2.9929621523597536    0.0000000000000000
     0.0000000000000000   -0.0000000000000001   44.6954514734646082
   O    Mg   Al
     9    10     7
Selective dynamics
Direct
  0.0000000000000000  0.0000000000000000  0.3570460951789469   T   T   T
  0.3333330000000032  0.6666669999999968  0.4132741012718744   T   T   T
  0.0000000000000000  0.0000000000000000  0.5257807382171675   T   T   T
  0.3333330000000032  0.6666669999999968  0.5820438370976020   T   T   T
  0.0000000000000000  0.0000000000000000  0.6945605053363220   T   T   T
  0.3333330000000032  0.6666669999999968  0.7507025385357463   T   T   T
  0.6666669999999968  0.3333330000000032  0.3008689458657848   T   T   T
  0.6666669999999968  0.3333330000000032  0.4695175442090017   T   T   T
  0.6666669999999968  0.3333330000000032  0.6383082278190632   T   T   T
  0.0000000000000000  0.0000000000000000  0.2717052235599091   T   T   T
  0.0000000000000000  0.0000000000000000  0.4414011898595429   T   T   T
  0.0000000000000000  0.0000000000000000  0.6101834445609586   T   T   T
  0.0000000000000000  0.0000000000000000  0.7798943138510214   T   T   T
  0.6666669999999968  0.3333330000000032  0.3851519152875275   T   T   T
  0.6666669999999968  0.3333330000000032  0.5539261403171125   T   T   T
  0.6666669999999968  0.3333330000000032  0.7226383169947785   T   T   T
  0.3333330000000032  0.6666669999999968  0.3289358365688405   T   T   T
  0.3333330000000032  0.6666669999999968  0.4976592349387044   T   T   T
  0.3333330000000032  0.6666669999999968  0.6664029767646243   T   T   T
  0.0000000000000000  0.0000000000000000  0.0257886305727364   T   T   T
  0.0000000000000000  0.0000000000000000  0.1907525058268351   T   T   T
  0.6666669999999968  0.3333330000000032  0.1346440801740587   T   T   T
  0.3333330000000032  0.6666669999999968  0.0805609199014887   T   T   T
  0.0000000000000000  0.0000000000000000  0.8608204785412650   T   T   T
  0.6666669999999968  0.3333330000000032  0.9710159900526563   T   T   T
  0.3333330000000032  0.6666669999999968  0.9169312686964749   T   T   T
 
  0.00000000E+00  0.00000000E+00  0.00000000E+00
  0.00000000E+00  0.00000000E+00  0.00000000E+00
  0.00000000E+00  0.00000000E+00  0.00000000E+00
  0.00000000E+00  0.00000000E+00  0.00000000E+00
  0.00000000E+00  0.00000000E+00  0.00000000E+00
  0.00000000E+00  0.00000000E+00  0.00000000E+00
  0.00000000E+00  0.00000000E+00  0.00000000E+00
  0.00000000E+00  0.00000000E+00  0.00000000E+00
  0.00000000E+00  0.00000000E+00  0.00000000E+00
  0.00000000E+00  0.00000000E+00  0.00000000E+00
  0.00000000E+00  0.00000000E+00  0.00000000E+00
  0.00000000E+00  0.00000000E+00  0.00000000E+00
  0.00000000E+00  0.00000000E+00  0.00000000E+00
  0.00000000E+00  0.00000000E+00  0.00000000E+00
  0.00000000E+00  0.00000000E+00  0.00000000E+00
  0.00000000E+00  0.00000000E+00  0.00000000E+00
  0.00000000E+00  0.00000000E+00  0.00000000E+00
  0.00000000E+00  0.00000000E+00  0.00000000E+00
  0.00000000E+00  0.00000000E+00  0.00000000E+00
  0.00000000E+00  0.00000000E+00  0.00000000E+00
  0.00000000E+00  0.00000000E+00  0.00000000E+00
  0.00000000E+00  0.00000000E+00  0.00000000E+00
  0.00000000E+00  0.00000000E+00  0.00000000E+00
  0.00000000E+00  0.00000000E+00  0.00000000E+00
  0.00000000E+00  0.00000000E+00  0.00000000E+00
  0.00000000E+00  0.00000000E+00  0.00000000E+00
