Layer                                   
   1.00000000000000     
     2.5925900057573852   -1.4952752265876454    0.0518951647512091
     0.0013482762012733    2.9928857367913029   -0.0518951489622574
     0.4089676063014350   -0.7083524578609989   46.7357979178701015
   O    Mg   Al
     9    10     7
Selective dynamics
Direct
  0.5530879124322654  0.4469120875756144  0.3675580558613429   T   T   T
  0.5000209346041177  0.4999790653951365  0.5257672879415808   T   T   T
  0.4469574506939918  0.5530425492967143  0.6839664766053056   T   T   T
  0.2374466354601700  0.7625533645283119  0.3149847377249214   T   T   T
  0.8687193851618441  0.1312806148431158  0.4202639827819231   T   T   T
  0.1843666441122332  0.8156333558863527  0.4729990582450341   T   T   T
  0.8156741862027537  0.1843258137974098  0.5785344580745000   T   T   T
  0.1313239603557093  0.8686760396379171  0.6312618956411974   T   T   T
  0.7626001047383809  0.2373998952738616  0.7365324164723374   T   T   T
  0.5798434967515421  0.4201565032539929  0.2880475959289059   T   T   T
  0.5265291592702063  0.4734708407328918  0.4466514100697462   T   T   T
  0.4735138062737880  0.5264861937247695  0.6048767551510620   T   T   T
  0.4202009306382268  0.5797990693534172  0.7634799665082092   T   T   T
  0.8952668333450906  0.1047331666695962  0.3412418170885891   T   T   T
  0.2108892029937613  0.7891107970136001  0.3939295911519115   T   T   T
  0.8421864540625223  0.1578135459395311  0.4993957357740895   T   T   T
  0.1578531392020708  0.8421468607969910  0.5521440634318366   T   T   T
  0.7891572519845882  0.2108427480095147  0.6575925897809297   T   T   T
  0.1047803026297068  0.8952196973574534  0.7102776907804937   T   T   T
  0.9999076217062820  0.0000923782880053  0.0258955565382081   T   T   T
  0.9306861547060099  0.0693138453086416  0.2362988084353315   T   T   T
  0.6344030557831868  0.3655969441914040  0.1210231008794498   T   T   T
  0.3173929203964412  0.6826070796001479  0.0730079298574782   T   T   T
  0.0693583049696831  0.9306416950134703  0.8152283127293025   T   T   T
  0.6824225141277306  0.3175774858834324  0.9787840531089184   T   T   T
  0.3654116373977404  0.6345883626286705  0.9307716534373339   T   T   T
 
  0.00000000E+00  0.00000000E+00  0.00000000E+00
  0.00000000E+00  0.00000000E+00  0.00000000E+00
  0.00000000E+00  0.00000000E+00  0.00000000E+00
  0.00000000E+00  0.00000000E+00  0.00000000E+00
  0.00000000E+00  0.00000000E+00  0.00000000E+00
  0.00000000E+00  0.00000000E+00  0.00000000E+00
  0.00000000E+00  0.00000000E+00  0.00000000E+00
  0.00000000E+00  0.00000000E+00  0.00000000E+00
  0.00000000E+00  0.00000000E+00  0.00000000E+00
  0.00000000E+00  0.00000000E+00  0.00000000E+00
  0.00000000E+00  0.00000000E+00  0.00000000E+00
  0.00000000E+00  0.00000000E+00  0.00000000E+00
  0.00000000E+00  0.00000000E+00  0.00000000E+00
  0.00000000E+00  0.00000000E+00  0.00000000E+00
  0.00000000E+00  0.00000000E+00  0.00000000E+00
  0.00000000E+00  0.00000000E+00  0.00000000E+00
  0.00000000E+00  0.00000000E+00  0.00000000E+00
  0.00000000E+00  0.00000000E+00  0.00000000E+00
  0.00000000E+00  0.00000000E+00  0.00000000E+00
  0.00000000E+00  0.00000000E+00  0.00000000E+00
  0.00000000E+00  0.00000000E+00  0.00000000E+00
  0.00000000E+00  0.00000000E+00  0.00000000E+00
  0.00000000E+00  0.00000000E+00  0.00000000E+00
  0.00000000E+00  0.00000000E+00  0.00000000E+00
  0.00000000E+00  0.00000000E+00  0.00000000E+00
  0.00000000E+00  0.00000000E+00  0.00000000E+00
