Layer                                   
   1.00000000000000     
     2.5925900057573852   -1.4952752265876454    0.0518951647512091
     0.0013482762012733    2.9928857367913029   -0.0518951489622574
0.4089676063014350 -0.7083524578609989 46.7357979178701012
   O    Mg   Al
     9    10     7
Selective dynamics
Direct
  0.5534676066927057  0.4465323933151740  0.3662209581092857   T   T   T
  0.5000214561739346  0.4999785438253201  0.5257643874879911   T   T   T
  0.4465707369017131  0.5534292630889931  0.6853215722220316   T   T   T
  0.2379273738681786  0.7620726261203036  0.3131452499489042   T   T   T
  0.8689854236610349  0.1310145763439248  0.4193939654429600   T   T   T
  0.1844965021960419  0.8155034978025441  0.4725952968026220   T   T   T
  0.8155454938786094  0.1844545061215536  0.5789387480676370   T   T   T
  0.1310557697042883  0.8689442302893379  0.6321415899607017   T   T   T
  0.7621141698502439  0.2378858301619987  0.7383885540733919   T   T   T
  0.5803749005354153  0.4196250994701197  0.2859312818432456   T   T   T
  0.5267375113860555  0.4732624886170421  0.4460020547474542   T   T   T
  0.4733031600270179  0.5266968399715399  0.6055360062960616   T   T   T
  0.4196685205632279  0.5803314794284159  0.7655964248290106   T   T   T
  0.8957103048604594  0.1042896951542272  0.3396250214974656   T   T   T
  0.2112234786207508  0.7887765213866105  0.3928119618773220   T   T   T
  0.8422577281194270  0.1577422718826265  0.4991820560217794   T   T   T
  0.1577823998966067  0.8422176001024555  0.5523553034875817   T   T   T
  0.7888153782515616  0.2111846217425409  0.6587293295808961   T   T   T
  0.1043347728786077  0.8956652271085526  0.7118987321685093   T   T   T
  0.9999120836422130  0.0000879163520744  0.0258843924002811   T   T   T
  0.9313721133926508  0.0686278866220006  0.2336156756519079   T   T   T
  0.6341228205707368  0.3658771794038541  0.1220562864387645   T   T   T
  0.3172359155410043  0.6827640844555849  0.0735550754859566   T   T   T
  0.0686768178586054  0.9313231821245476  0.8178948125897713   T   T   T
  0.6825880961981229  0.3174119038130397  0.9782142776256767   T   T   T
  0.3656994647308286  0.6343005352955823  0.9297159853427429   T   T   T
 
  0.00000000E+00  0.00000000E+00  0.00000000E+00
  0.00000000E+00  0.00000000E+00  0.00000000E+00
  0.00000000E+00  0.00000000E+00  0.00000000E+00
  0.00000000E+00  0.00000000E+00  0.00000000E+00
  0.00000000E+00  0.00000000E+00  0.00000000E+00
  0.00000000E+00  0.00000000E+00  0.00000000E+00
  0.00000000E+00  0.00000000E+00  0.00000000E+00
  0.00000000E+00  0.00000000E+00  0.00000000E+00
  0.00000000E+00  0.00000000E+00  0.00000000E+00
  0.00000000E+00  0.00000000E+00  0.00000000E+00
  0.00000000E+00  0.00000000E+00  0.00000000E+00
  0.00000000E+00  0.00000000E+00  0.00000000E+00
  0.00000000E+00  0.00000000E+00  0.00000000E+00
  0.00000000E+00  0.00000000E+00  0.00000000E+00
  0.00000000E+00  0.00000000E+00  0.00000000E+00
  0.00000000E+00  0.00000000E+00  0.00000000E+00
  0.00000000E+00  0.00000000E+00  0.00000000E+00
  0.00000000E+00  0.00000000E+00  0.00000000E+00
  0.00000000E+00  0.00000000E+00  0.00000000E+00
  0.00000000E+00  0.00000000E+00  0.00000000E+00
  0.00000000E+00  0.00000000E+00  0.00000000E+00
  0.00000000E+00  0.00000000E+00  0.00000000E+00
  0.00000000E+00  0.00000000E+00  0.00000000E+00
  0.00000000E+00  0.00000000E+00  0.00000000E+00
  0.00000000E+00  0.00000000E+00  0.00000000E+00
  0.00000000E+00  0.00000000E+00  0.00000000E+00
