Layer                                   
   1.00000000000000     
     2.5919820456764819   -1.4964810761798768    0.0000000000000000
     0.0000000000000001    2.9929621523597536    0.0000000000000000
     0.0000000000000000   -0.0000000000000001   46.7457015410547285
   O    Mg   Al
     9    10     7
Selective dynamics
Direct
 -0.0000000000000000  0.0000000000000000  0.3678306104262984   T   T   T
  0.3333330000000032  0.6666669999999968  0.4204629938114075   T   T   T
 -0.0000000000000000  0.0000000000000000  0.5257960785247264   T   T   T
  0.3333330000000032  0.6666669999999968  0.5784400052650061   T   T   T
 -0.0000000000000000  0.0000000000000000  0.6837540713615113   T   T   T
  0.3333330000000032  0.6666669999999968  0.7362288461810952   T   T   T
  0.6666669999999968  0.3333330000000032  0.3153744675749452   T   T   T
  0.6666669999999968  0.3333330000000032  0.4731532471203677   T   T   T
  0.6666669999999968  0.3333330000000032  0.6311202058200842   T   T   T
 -0.0000000000000000  0.0000000000000000  0.2879354007665312   T   T   T
 -0.0000000000000000  0.0000000000000000  0.4467862432770390   T   T   T
 -0.0000000000000000  0.0000000000000000  0.6048076068004842   T   T   T
 -0.0000000000000000  0.0000000000000000  0.7636468656585383   T   T   T
  0.6666669999999968  0.3333330000000032  0.3941321411396930   T   T   T
  0.6666669999999968  0.3333330000000032  0.5521257787040079   T   T   T
  0.6666669999999968  0.3333330000000032  0.7100736166205999   T   T   T
  0.3333330000000032  0.6666669999999968  0.3415208708291792   T   T   T
  0.3333330000000032  0.6666669999999968  0.4994621443029347   T   T   T
  0.3333330000000032  0.6666669999999968  0.6574677915932509   T   T   T
 -0.0000000000000000  0.0000000000000000  0.0257715178129219   T   T   T
 -0.0000000000000000  0.0000000000000000  0.1690638071091862   T   T   T
  0.6666669999999968  0.3333330000000032  0.1209102448062554   T   T   T
  0.3333330000000032  0.6666669999999968  0.0731960765356163   T   T   T
 -0.0000000000000000  0.0000000000000000  0.8824766079638934   T   T   T
  0.6666669999999968  0.3333330000000032  0.9783463240543118   T   T   T
  0.3333330000000032  0.6666669999999968  0.9306314359401223   T   T   T
 
  0.00000000E+00  0.00000000E+00  0.00000000E+00
  0.00000000E+00  0.00000000E+00  0.00000000E+00
  0.00000000E+00  0.00000000E+00  0.00000000E+00
  0.00000000E+00  0.00000000E+00  0.00000000E+00
  0.00000000E+00  0.00000000E+00  0.00000000E+00
  0.00000000E+00  0.00000000E+00  0.00000000E+00
  0.00000000E+00  0.00000000E+00  0.00000000E+00
  0.00000000E+00  0.00000000E+00  0.00000000E+00
  0.00000000E+00  0.00000000E+00  0.00000000E+00
  0.00000000E+00  0.00000000E+00  0.00000000E+00
  0.00000000E+00  0.00000000E+00  0.00000000E+00
  0.00000000E+00  0.00000000E+00  0.00000000E+00
  0.00000000E+00  0.00000000E+00  0.00000000E+00
  0.00000000E+00  0.00000000E+00  0.00000000E+00
  0.00000000E+00  0.00000000E+00  0.00000000E+00
  0.00000000E+00  0.00000000E+00  0.00000000E+00
  0.00000000E+00  0.00000000E+00  0.00000000E+00
  0.00000000E+00  0.00000000E+00  0.00000000E+00
  0.00000000E+00  0.00000000E+00  0.00000000E+00
  0.00000000E+00  0.00000000E+00  0.00000000E+00
  0.00000000E+00  0.00000000E+00  0.00000000E+00
  0.00000000E+00  0.00000000E+00  0.00000000E+00
  0.00000000E+00  0.00000000E+00  0.00000000E+00
  0.00000000E+00  0.00000000E+00  0.00000000E+00
  0.00000000E+00  0.00000000E+00  0.00000000E+00
  0.00000000E+00  0.00000000E+00  0.00000000E+00
