MgO7                                    
   1.00000000000000     
     2.1244360000000002   -2.1244350000000001    0.0000000000000000
     0.0000000000000000    2.1244360000000002   -2.1244360000000002
    12.9091249999999995   12.9091249999999995   12.9091249999999995
   O    Mg
     4     3
Selective dynamics
Direct
 -0.0000000000000000 -0.0000000000000000  0.0421998478061769   T   T   T
  0.3333330000000032  0.6666669999999968  0.1540626149184701   T   T   T
  0.0000000000000000  0.0000000000000000  0.3738609999999980   F   F   F
  0.6666669999999968  0.3333330000000032  0.2641490000000033   F   F   F
  0.0000000000000000  0.0000000000000000  0.2092930000000024   F   F   F
  0.6666669999999968  0.3333330000000032  0.0998175797730314   T   T   T
  0.3333330000000032  0.6666669999999968  0.3190049999999971   F   F   F
 
  0.00000000E+00  0.00000000E+00  0.00000000E+00
  0.00000000E+00  0.00000000E+00  0.00000000E+00
  0.00000000E+00  0.00000000E+00  0.00000000E+00
  0.00000000E+00  0.00000000E+00  0.00000000E+00
  0.00000000E+00  0.00000000E+00  0.00000000E+00
  0.00000000E+00  0.00000000E+00  0.00000000E+00
  0.00000000E+00  0.00000000E+00  0.00000000E+00
