Layer26                                 
   1.00000000000000     
     2.5363690000000001   -1.4643729999999999    0.0000000000000000
     0.0000000000000000    2.9287459999999998    0.0000000000000000
     0.0000000000000000    0.0000000000000000   74.9790529999999933
   O    Mg   Al
    11    10     7
Selective dynamics
Direct
  0.3333330000000032  0.6666669999999968  0.4404625002394766   T   T   T
  0.0000000000000000  0.0000000000000000  0.5070826932782992   T   T   T
  0.3333330000000032  0.6666669999999968  0.5401472138543042   T   T   T
  0.0000000000000000  0.0000000000000000  0.6062516659979522   T   T   T
  0.3333330000000032  0.6666669999999968  0.6393099569593090   T   T   T
  0.0000000000000000  0.0000000000000000  0.7053466489998641   T   T   T
  0.3333330000000032  0.6666669999999968  0.7383491777615205   T   T   T
  0.6666669999999968  0.3333330000000032  0.4740287080347798   T   T   T
  0.6666669999999968  0.3333330000000032  0.5732156836732401   T   T   T
  0.6666669999999968  0.3333330000000032  0.6723321025147513   T   T   T
  0.6666669999999968  0.3333330000000032  0.7720299842498051   T   T   T
  0.0000000000000000  0.0000000000000000  0.4575150477981609   T   T   T
  0.0000000000000000  0.0000000000000000  0.5566658758395349   T   T   T
  0.0000000000000000  0.0000000000000000  0.6558164934086150   T   T   T
  0.0000000000000000  0.0000000000000000  0.7548019894716873   T   T   T
  0.6666669999999968  0.3333330000000032  0.5235891804386128   T   T   T
  0.6666669999999968  0.3333330000000032  0.6227648537996586   T   T   T
  0.6666669999999968  0.3333330000000032  0.7218306620557797   T   T   T
  0.3333330000000032  0.6666669999999968  0.4905258745714534   T   T   T
  0.3333330000000032  0.6666669999999968  0.5897230077885709   T   T   T
  0.3333330000000032  0.6666669999999968  0.6888346695463738   T   T   T
  0.0000000000000000  0.0000000000000000  0.2248465725307156   T   T   T
  0.0000000000000000  0.0000000000000000  0.3161399407318086   T   T   T
  0.0000000000000000  0.0000000000000000  0.4075182977240601   T   T   T
  0.6666669999999968  0.3333330000000032  0.2859563316771769   T   T   T
  0.6666669999999968  0.3333330000000032  0.3763838984190926   T   T   T
  0.3333330000000032  0.6666669999999968  0.2557834184229222   T   T   T
  0.3333330000000032  0.6666669999999968  0.3465405502124810   T   T   T
 
  0.00000000E+00  0.00000000E+00  0.00000000E+00
  0.00000000E+00  0.00000000E+00  0.00000000E+00
  0.00000000E+00  0.00000000E+00  0.00000000E+00
  0.00000000E+00  0.00000000E+00  0.00000000E+00
  0.00000000E+00  0.00000000E+00  0.00000000E+00
  0.00000000E+00  0.00000000E+00  0.00000000E+00
  0.00000000E+00  0.00000000E+00  0.00000000E+00
  0.00000000E+00  0.00000000E+00  0.00000000E+00
  0.00000000E+00  0.00000000E+00  0.00000000E+00
  0.00000000E+00  0.00000000E+00  0.00000000E+00
  0.00000000E+00  0.00000000E+00  0.00000000E+00
  0.00000000E+00  0.00000000E+00  0.00000000E+00
  0.00000000E+00  0.00000000E+00  0.00000000E+00
  0.00000000E+00  0.00000000E+00  0.00000000E+00
  0.00000000E+00  0.00000000E+00  0.00000000E+00
  0.00000000E+00  0.00000000E+00  0.00000000E+00
  0.00000000E+00  0.00000000E+00  0.00000000E+00
  0.00000000E+00  0.00000000E+00  0.00000000E+00
  0.00000000E+00  0.00000000E+00  0.00000000E+00
  0.00000000E+00  0.00000000E+00  0.00000000E+00
  0.00000000E+00  0.00000000E+00  0.00000000E+00
  0.00000000E+00  0.00000000E+00  0.00000000E+00
  0.00000000E+00  0.00000000E+00  0.00000000E+00
  0.00000000E+00  0.00000000E+00  0.00000000E+00
  0.00000000E+00  0.00000000E+00  0.00000000E+00
  0.00000000E+00  0.00000000E+00  0.00000000E+00
  0.00000000E+00  0.00000000E+00  0.00000000E+00
  0.00000000E+00  0.00000000E+00  0.00000000E+00
