Layer                                   
   1.00000000000000     
     2.5753034101725314   -1.4868516770802194    0.0000000000000000
     0.0000000000000000    2.9737033541604387    0.0000000000000000
    -0.0000000000000009    0.0000000000000000   44.8926224435535417
   O    Mg   Al
    11    10     7
Selective dynamics
Direct
  0.3333330000000032  0.6666669999999968  0.2438679914231484   T   T   T
  0.0000000000000000 -0.0000000000000000  0.3565687338383005   T   T   T
  0.3333330000000032  0.6666669999999968  0.4125560395637392   T   T   T
 -0.0000000000000000 -0.0000000000000000  0.5245411868195120   T   T   T
  0.3333330000000032  0.6666669999999968  0.5805329973665603   T   T   T
 -0.0000000000000000 -0.0000000000000000  0.6925095292198772   T   T   T
  0.3333330000000032  0.6666669999999968  0.7485522259851047   T   T   T
  0.6666669999999968  0.3333330000000032  0.3005285329499934   T   T   T
  0.6666669999999968  0.3333330000000032  0.4685493267971741   T   T   T
  0.6666669999999968  0.3333330000000032  0.6365247277591742   T   T   T
  0.6666669999999968  0.3333330000000032  0.8052132778986338   T   T   T
 -0.0000000000000000 -0.0000000000000000  0.2725640233214407   T   T   T
 -0.0000000000000000 -0.0000000000000000  0.4405531389819308   T   T   T
 -0.0000000000000000 -0.0000000000000000  0.6085282792032646   T   T   T
 -0.0000000000000000 -0.0000000000000000  0.7765172964209018   T   T   T
  0.6666669999999968  0.3333330000000032  0.3845577609641349   T   T   T
  0.6666669999999968  0.3333330000000032  0.5525267009391260   T   T   T
  0.6666669999999968  0.3333330000000032  0.7205258749978027   T   T   T
  0.3333330000000032  0.6666669999999968  0.3285600531037163   T   T   T
  0.3333330000000032  0.6666669999999968  0.4965534035643273   T   T   T
  0.3333330000000032  0.6666669999999968  0.6645277497008877   T   T   T
 -0.0000000000000000 -0.0000000000000000  0.0245422583034411   T   T   T
 -0.0000000000000000 -0.0000000000000000  0.2105542377028449   T   T   T
  0.6666669999999968  0.3333330000000032  0.1566174683188910   T   T   T
  0.3333330000000032  0.6666669999999968  0.0800737831483315   T   T   T
 -0.0000000000000000 -0.0000000000000000  0.8385295026230311   T   T   T
  0.6666669999999968  0.3333330000000032  0.9690089385804485   T   T   T
  0.3333330000000032  0.6666669999999968  0.8924659605042755   T   T   T
 
  0.00000000E+00  0.00000000E+00  0.00000000E+00
  0.00000000E+00  0.00000000E+00  0.00000000E+00
  0.00000000E+00  0.00000000E+00  0.00000000E+00
  0.00000000E+00  0.00000000E+00  0.00000000E+00
  0.00000000E+00  0.00000000E+00  0.00000000E+00
  0.00000000E+00  0.00000000E+00  0.00000000E+00
  0.00000000E+00  0.00000000E+00  0.00000000E+00
  0.00000000E+00  0.00000000E+00  0.00000000E+00
  0.00000000E+00  0.00000000E+00  0.00000000E+00
  0.00000000E+00  0.00000000E+00  0.00000000E+00
  0.00000000E+00  0.00000000E+00  0.00000000E+00
  0.00000000E+00  0.00000000E+00  0.00000000E+00
  0.00000000E+00  0.00000000E+00  0.00000000E+00
  0.00000000E+00  0.00000000E+00  0.00000000E+00
  0.00000000E+00  0.00000000E+00  0.00000000E+00
  0.00000000E+00  0.00000000E+00  0.00000000E+00
  0.00000000E+00  0.00000000E+00  0.00000000E+00
  0.00000000E+00  0.00000000E+00  0.00000000E+00
  0.00000000E+00  0.00000000E+00  0.00000000E+00
  0.00000000E+00  0.00000000E+00  0.00000000E+00
  0.00000000E+00  0.00000000E+00  0.00000000E+00
  0.00000000E+00  0.00000000E+00  0.00000000E+00
  0.00000000E+00  0.00000000E+00  0.00000000E+00
  0.00000000E+00  0.00000000E+00  0.00000000E+00
  0.00000000E+00  0.00000000E+00  0.00000000E+00
  0.00000000E+00  0.00000000E+00  0.00000000E+00
  0.00000000E+00  0.00000000E+00  0.00000000E+00
  0.00000000E+00  0.00000000E+00  0.00000000E+00
