Layer                                   
   1.00000000000000     
     2.5753034101725314   -1.4868516770802194    0.0000000000000000
     0.0000000000000000    2.9737033541604387    0.0000000000000000
    -0.0000000000000009    0.0000000000000000   42.8520486961192901
   O    Mg   Al
    11    10     7
Selective dynamics
Direct
  0.3333330000000032  0.6666669999999968  0.2293900519154683   T   T   T
  0.0000000000000000  0.0000000000000000  0.3479481575882819   T   T   T
  0.3333330000000032  0.6666669999999968  0.4068486740460390   T   T   T
 -0.0000000000000000 -0.0000000000000000  0.5245411868195120   T   T   T
  0.3333330000000032  0.6666669999999968  0.5833630330816874   T   T   T
 -0.0000000000000000 -0.0000000000000000  0.7011301054698963   T   T   T
  0.3333330000000032  0.6666669999999968  0.7600703951218446   T   T   T
  0.6666669999999968  0.3333330000000032  0.2890103638132530   T   T   T
  0.6666669999999968  0.3333330000000032  0.4657192910820468   T   T   T
  0.6666669999999968  0.3333330000000032  0.6422320932768740   T   T   T
  0.6666669999999968  0.3333330000000032  0.8196912174063138   T   T   T
  0.0000000000000000  0.0000000000000000  0.2596233581475849   T   T   T
  0.0000000000000000  0.0000000000000000  0.4362916854149371   T   T   T
  0.0000000000000000  0.0000000000000000  0.6127897327702589   T   T   T
  0.0000000000000000 -0.0000000000000000  0.7894579615947575   T   T   T
  0.6666669999999968  0.3333330000000032  0.3774161602080078   T   T   T
  0.6666669999999968  0.3333330000000032  0.5539493678125057   T   T   T
  0.6666669999999968  0.3333330000000032  0.7305687333921973   T   T   T
  0.3333330000000032  0.6666669999999968  0.3185171947093217   T   T   T
  0.3333330000000032  0.6666669999999968  0.4951307366909475   T   T   T
  0.3333330000000032  0.6666669999999968  0.6716693504570156   T   T   T
  0.0000000000000000  0.0000000000000000  0.0245422583034411   T   T   T
  0.0000000000000000  0.0000000000000000  0.1944720845678512   T   T   T
  0.6666669999999968  0.3333330000000032  0.1395624463901771   T   T   T
  0.3333330000000032  0.6666669999999968  0.0817816886197853   T   T   T
  0.0000000000000000  0.0000000000000000  0.8546116557580253   T   T   T
  0.6666669999999968  0.3333330000000032  0.9673010331089951   T   T   T
  0.3333330000000032  0.6666669999999968  0.9095209824329897   T   T   T
 
  0.00000000E+00  0.00000000E+00  0.00000000E+00
  0.00000000E+00  0.00000000E+00  0.00000000E+00
  0.00000000E+00  0.00000000E+00  0.00000000E+00
  0.00000000E+00  0.00000000E+00  0.00000000E+00
  0.00000000E+00  0.00000000E+00  0.00000000E+00
  0.00000000E+00  0.00000000E+00  0.00000000E+00
  0.00000000E+00  0.00000000E+00  0.00000000E+00
  0.00000000E+00  0.00000000E+00  0.00000000E+00
  0.00000000E+00  0.00000000E+00  0.00000000E+00
  0.00000000E+00  0.00000000E+00  0.00000000E+00
  0.00000000E+00  0.00000000E+00  0.00000000E+00
  0.00000000E+00  0.00000000E+00  0.00000000E+00
  0.00000000E+00  0.00000000E+00  0.00000000E+00
  0.00000000E+00  0.00000000E+00  0.00000000E+00
  0.00000000E+00  0.00000000E+00  0.00000000E+00
  0.00000000E+00  0.00000000E+00  0.00000000E+00
  0.00000000E+00  0.00000000E+00  0.00000000E+00
  0.00000000E+00  0.00000000E+00  0.00000000E+00
  0.00000000E+00  0.00000000E+00  0.00000000E+00
  0.00000000E+00  0.00000000E+00  0.00000000E+00
  0.00000000E+00  0.00000000E+00  0.00000000E+00
  0.00000000E+00  0.00000000E+00  0.00000000E+00
  0.00000000E+00  0.00000000E+00  0.00000000E+00
  0.00000000E+00  0.00000000E+00  0.00000000E+00
  0.00000000E+00  0.00000000E+00  0.00000000E+00
  0.00000000E+00  0.00000000E+00  0.00000000E+00
  0.00000000E+00  0.00000000E+00  0.00000000E+00
  0.00000000E+00  0.00000000E+00  0.00000000E+00
