Layer                                   
   1.00000000000000     
     2.5753034101725314   -1.4868516770802194    0.0000000000000000
     0.0000000000000000    2.9737033541604387    0.0000000000000000
-0.0000000000000009 0.0000000000000000 42.8520486961192905
   O    Mg   Al
    11    10     7
Selective dynamics
Direct
  0.3333330000000032  0.6666669999999968  0.2277973961310441   T   T   T
  0.0000000000000000 -0.0000000000000000  0.3469174575157341   T   T   T
  0.3333330000000032  0.6666669999999968  0.4061277811721848   T   T   T
  0.0000000000000000 -0.0000000000000000  0.5245411868195123   T   T   T
  0.3333330000000032  0.6666669999999968  0.5837489747777440   T   T   T
  0.0000000000000000 -0.0000000000000000  0.7021608055424409   T   T   T
  0.3333330000000032  0.6666669999999968  0.7613857411270727   T   T   T
  0.6666669999999968  0.3333330000000032  0.2876950178080249   T   T   T
  0.6666669999999968  0.3333330000000032  0.4653333493859937   T   T   T
  0.6666669999999968  0.3333330000000032  0.6429529861507237   T   T   T
  0.6666669999999968  0.3333330000000032  0.8212838731907400   T   T   T
  0.0000000000000000 -0.0000000000000000  0.2581266912224363   T   T   T
  0.0000000000000000 -0.0000000000000000  0.4357188494010678   T   T   T
  0.0000000000000000 -0.0000000000000000  0.6133625687841269   T   T   T
  0.0000000000000000 -0.0000000000000000  0.7909546285199064   T   T   T
  0.6666669999999968  0.3333330000000032  0.3765135128178951   T   T   T
  0.6666669999999968  0.3333330000000032  0.5541429635146572   T   T   T
  0.6666669999999968  0.3333330000000032  0.7317713109797233   T   T   T
  0.3333330000000032  0.6666669999999968  0.3173146171217928   T   T   T
  0.3333330000000032  0.6666669999999968  0.4949371409887926   T   T   T
  0.3333330000000032  0.6666669999999968  0.6725719978471274   T   T   T
  0.0000000000000000 -0.0000000000000000  0.0245422583034437   T   T   T
  0.0000000000000000 -0.0000000000000000  0.1926129286943687   T   T   T
  0.6666669999999968  0.3333330000000032  0.1380935469970103   T   T   T
  0.3333330000000032  0.6666669999999968  0.0808741331641137   T   T   T
  0.0000000000000000 -0.0000000000000000  0.8564708116315111   T   T   T
  0.6666669999999968  0.3333330000000032  0.9682085885646674   T   T   T
  0.3333330000000032  0.6666669999999968  0.9109898818261570   T   T   T
 
  0.00000000E+00  0.00000000E+00  0.00000000E+00
  0.00000000E+00  0.00000000E+00  0.00000000E+00
  0.00000000E+00  0.00000000E+00  0.00000000E+00
  0.00000000E+00  0.00000000E+00  0.00000000E+00
  0.00000000E+00  0.00000000E+00  0.00000000E+00
  0.00000000E+00  0.00000000E+00  0.00000000E+00
  0.00000000E+00  0.00000000E+00  0.00000000E+00
  0.00000000E+00  0.00000000E+00  0.00000000E+00
  0.00000000E+00  0.00000000E+00  0.00000000E+00
  0.00000000E+00  0.00000000E+00  0.00000000E+00
  0.00000000E+00  0.00000000E+00  0.00000000E+00
  0.00000000E+00  0.00000000E+00  0.00000000E+00
  0.00000000E+00  0.00000000E+00  0.00000000E+00
  0.00000000E+00  0.00000000E+00  0.00000000E+00
  0.00000000E+00  0.00000000E+00  0.00000000E+00
  0.00000000E+00  0.00000000E+00  0.00000000E+00
  0.00000000E+00  0.00000000E+00  0.00000000E+00
  0.00000000E+00  0.00000000E+00  0.00000000E+00
  0.00000000E+00  0.00000000E+00  0.00000000E+00
  0.00000000E+00  0.00000000E+00  0.00000000E+00
  0.00000000E+00  0.00000000E+00  0.00000000E+00
  0.00000000E+00  0.00000000E+00  0.00000000E+00
  0.00000000E+00  0.00000000E+00  0.00000000E+00
  0.00000000E+00  0.00000000E+00  0.00000000E+00
  0.00000000E+00  0.00000000E+00  0.00000000E+00
  0.00000000E+00  0.00000000E+00  0.00000000E+00
  0.00000000E+00  0.00000000E+00  0.00000000E+00
  0.00000000E+00  0.00000000E+00  0.00000000E+00
