Layer                                   
   1.00000000000000     
     2.6004576726853683   -1.5013744842201957   -0.0000000000000000
    -0.0000000000000000    3.0027489684403914   -0.0000000000000000
     0.0000000000000007   -0.0000000000000001   38.5425664646754313
   O    Mg   Al
    10     9     7
Selective dynamics
Direct
  0.0000000000000000  0.0000000000000000  0.2423787253386827   T   T   T
  0.3333330000000032  0.6666669999999968  0.3035347378461077   T   T   T
  0.0000000000000000  0.0000000000000000  0.4307399281323803   T   T   T
  0.3333330000000032  0.6666669999999968  0.4943172854034192   T   T   T
 -0.0000000000000000 -0.0000000000000000  0.6215223934417743   T   T   T
  0.3333330000000032  0.6666669999999968  0.6851305555715175   T   T   T
 -0.0000000000000000 -0.0000000000000000  0.8097308503896105   T   T   T
  0.6666669999999968  0.3333330000000032  0.3671415413791433   T   T   T
  0.6666669999999968  0.3333330000000032  0.5579106583988853   T   T   T
  0.6666669999999968  0.3333330000000032  0.7486909273303251   T   T   T
  0.0000000000000000  0.0000000000000000  0.3353402239360559   T   T   T
 -0.0000000000000000 -0.0000000000000000  0.5261193060899955   T   T   T
 -0.0000000000000000 -0.0000000000000000  0.7168954763412366   T   T   T
  0.6666669999999968  0.3333330000000032  0.2716058566550644   T   T   T
  0.6666669999999968  0.3333330000000032  0.4625432160837725   T   T   T
  0.6666669999999968  0.3333330000000032  0.6533293562216957   T   T   T
  0.3333330000000032  0.6666669999999968  0.3989382766593626   T   T   T
  0.3333330000000032  0.6666669999999968  0.5897120056341534   T   T   T
  0.3333330000000032  0.6666669999999968  0.7805673604167478   T   T   T
  0.0000000000000000  0.0000000000000000  0.0256393359766770   T   T   T
  0.0000000000000000  0.0000000000000000  0.1977145668802092   T   T   T
  0.6666669999999968  0.3333330000000032  0.1413498692103434   T   T   T
  0.3333330000000032  0.6666669999999968  0.0831288587149550   T   T   T
 -0.0000000000000000 -0.0000000000000000  0.8543743408811515   T   T   T
  0.6666669999999968  0.3333330000000032  0.9682456918727356   T   T   T
  0.3333330000000032  0.6666669999999968  0.9103656551940166   T   T   T
 
  0.00000000E+00  0.00000000E+00  0.00000000E+00
  0.00000000E+00  0.00000000E+00  0.00000000E+00
  0.00000000E+00  0.00000000E+00  0.00000000E+00
  0.00000000E+00  0.00000000E+00  0.00000000E+00
  0.00000000E+00  0.00000000E+00  0.00000000E+00
  0.00000000E+00  0.00000000E+00  0.00000000E+00
  0.00000000E+00  0.00000000E+00  0.00000000E+00
  0.00000000E+00  0.00000000E+00  0.00000000E+00
  0.00000000E+00  0.00000000E+00  0.00000000E+00
  0.00000000E+00  0.00000000E+00  0.00000000E+00
  0.00000000E+00  0.00000000E+00  0.00000000E+00
  0.00000000E+00  0.00000000E+00  0.00000000E+00
  0.00000000E+00  0.00000000E+00  0.00000000E+00
  0.00000000E+00  0.00000000E+00  0.00000000E+00
  0.00000000E+00  0.00000000E+00  0.00000000E+00
  0.00000000E+00  0.00000000E+00  0.00000000E+00
  0.00000000E+00  0.00000000E+00  0.00000000E+00
  0.00000000E+00  0.00000000E+00  0.00000000E+00
  0.00000000E+00  0.00000000E+00  0.00000000E+00
  0.00000000E+00  0.00000000E+00  0.00000000E+00
  0.00000000E+00  0.00000000E+00  0.00000000E+00
  0.00000000E+00  0.00000000E+00  0.00000000E+00
  0.00000000E+00  0.00000000E+00  0.00000000E+00
  0.00000000E+00  0.00000000E+00  0.00000000E+00
  0.00000000E+00  0.00000000E+00  0.00000000E+00
  0.00000000E+00  0.00000000E+00  0.00000000E+00
