Layer 
1.0 
2.514528 -1.451763 0.000000 
0.000000 2.903526 -0.000000 
0.000000 0.000000 43.645068 
O Mg Al 
10 9 7 
Selective Dynamics
Direct 
-0.000000 -0.000000 0.254964 T T T 
0.333333 0.666667 0.315142 T T T 
-0.000000 -0.000000 0.435500 T T T 
0.333333 0.666667 0.495679 T T T 
-0.000000 -0.000000 0.616036 T T T 
0.333333 0.666667 0.676215 T T T 
-0.000000 0.000000 0.796573 T T T 
0.666667 0.333333 0.375321 T T T 
0.666667 0.333333 0.555857 T T T 
0.666667 0.333333 0.736394 T T T 
-0.000000 0.000000 0.345232 T T T 
-0.000000 -0.000000 0.525768 T T T 
-0.000000 -0.000000 0.706304 T T T 
0.666667 0.333333 0.285053 T T T 
0.666667 0.333333 0.465589 T T T 
0.666667 0.333333 0.646126 T T T 
0.333333 0.666667 0.405411 T T T 
0.333333 0.666667 0.585947 T T T 
0.333333 0.666667 0.766483 T T T 
0.000000 0.000000 0.032764 T T T 
0.000000 0.000000 0.187373 T T T 
0.666667 0.333333 0.135837 T T T 
0.333333 0.666667 0.084301 T T T 
-0.000000 -0.000000 0.864163 T T T 
0.666667 0.333333 0.967236 T T T 
0.333333 0.666667 0.915699 T T T 
