Layer                                   
   1.00000000000000     
     2.5922013181189856   -1.4966076734688392    0.0000000000000000
     0.0000000000000000    2.9932153469376783    0.0000000000000000
-0.0000000000000002 0.0000000000000000 46.6997703221066420
   O    Mg   Al
    10    11     7
Selective dynamics
Direct
 -0.0000000000000000 -0.0000000000000000  0.2781267722691147   T   T   T
  0.3333330000000032  0.6666669999999968  0.3328457478800661   T   T   T
  0.0000000000000000 -0.0000000000000000  0.4423313427920328   T   T   T
  0.3333330000000032  0.6666669999999968  0.4970219790891673   T   T   T
 -0.0000000000000000  0.0000000000000000  0.6063058482038860   T   T   T
  0.3333330000000032  0.6666669999999968  0.6610405745537108   T   T   T
  0.0000000000000000  0.0000000000000000  0.7705184198833985   T   T   T
  0.6666669999999968  0.3333330000000032  0.3875996615257180   T   T   T
  0.6666669999999968  0.3333330000000032  0.5516135685243831   T   T   T
  0.6666669999999968  0.3333330000000032  0.7157974720742342   T   T   T
 -0.0000000000000000 -0.0000000000000000  0.3602240382466326   T   T   T
 -0.0000000000000000  0.0000000000000000  0.5243182338375902   T   T   T
 -0.0000000000000000  0.0000000000000000  0.6884172322500270   T   T   T
  0.6666669999999968  0.3333330000000032  0.3054869963508168   T   T   T
  0.6666669999999968  0.3333330000000032  0.4696832722402988   T   T   T
  0.6666669999999968  0.3333330000000032  0.6336736330970726   T   T   T
  0.6666669999999968  0.3333330000000032  0.7988141858737260   T   T   T
  0.3333330000000032  0.6666669999999968  0.2498311481699578   T   T   T
  0.3333330000000032  0.6666669999999968  0.4149657431486372   T   T   T
  0.3333330000000032  0.6666669999999968  0.5789538656016588   T   T   T
  0.3333330000000032  0.6666669999999968  0.7431562726454563   T   T   T
 -0.0000000000000000  0.0000000000000000  0.0243195811998618   T   T   T
 -0.0000000000000000  0.0000000000000000  0.1908159059319319   T   T   T
  0.6666669999999968  0.3333330000000032  0.1340806358000206   T   T   T
  0.3333330000000032  0.6666669999999968  0.0791099011399169   T   T   T
 -0.0000000000000000  0.0000000000000000  0.8578303513930791   T   T   T
  0.6666669999999968  0.3333330000000032  0.9695283677873463   T   T   T
  0.3333330000000032  0.6666669999999968  0.9145602484902868   T   T   T
 
  0.00000000E+00  0.00000000E+00  0.00000000E+00
  0.00000000E+00  0.00000000E+00  0.00000000E+00
  0.00000000E+00  0.00000000E+00  0.00000000E+00
  0.00000000E+00  0.00000000E+00  0.00000000E+00
  0.00000000E+00  0.00000000E+00  0.00000000E+00
  0.00000000E+00  0.00000000E+00  0.00000000E+00
  0.00000000E+00  0.00000000E+00  0.00000000E+00
  0.00000000E+00  0.00000000E+00  0.00000000E+00
  0.00000000E+00  0.00000000E+00  0.00000000E+00
  0.00000000E+00  0.00000000E+00  0.00000000E+00
  0.00000000E+00  0.00000000E+00  0.00000000E+00
  0.00000000E+00  0.00000000E+00  0.00000000E+00
  0.00000000E+00  0.00000000E+00  0.00000000E+00
  0.00000000E+00  0.00000000E+00  0.00000000E+00
  0.00000000E+00  0.00000000E+00  0.00000000E+00
  0.00000000E+00  0.00000000E+00  0.00000000E+00
  0.00000000E+00  0.00000000E+00  0.00000000E+00
  0.00000000E+00  0.00000000E+00  0.00000000E+00
  0.00000000E+00  0.00000000E+00  0.00000000E+00
  0.00000000E+00  0.00000000E+00  0.00000000E+00
  0.00000000E+00  0.00000000E+00  0.00000000E+00
  0.00000000E+00  0.00000000E+00  0.00000000E+00
  0.00000000E+00  0.00000000E+00  0.00000000E+00
  0.00000000E+00  0.00000000E+00  0.00000000E+00
  0.00000000E+00  0.00000000E+00  0.00000000E+00
  0.00000000E+00  0.00000000E+00  0.00000000E+00
  0.00000000E+00  0.00000000E+00  0.00000000E+00
  0.00000000E+00  0.00000000E+00  0.00000000E+00
