Layer(26)                               
   1.00000000000000     
     2.5959741503343712   -1.5223026025804030   -0.0216319807741421
    -0.0203658138281849    3.0093305667607688    0.0216319763247703
    -0.2827683704209646    0.4897691817218413   69.1200910786235170
   Al
     7
Selective dynamics
Direct
  0.9263617722695727  0.0736382272745431  0.2352497702715937   T   T   T
  0.9471486170405754  0.0528513836849100  0.3317767311642328   T   T   T
  0.9610902924521127  0.0389097070131825  0.4275679314094063   T   T   T
  0.6061050311740743  0.3938949690303701  0.2997495628636955   T   T   T
  0.6445727900770919  0.3554272106754084  0.3963857338324956   T   T   T
  0.2678063045627823  0.7321936953404133  0.2677963106266219   T   T   T
  0.2921811584642526  0.7078188426230554  0.3640747786374732   T   T   T
 
  0.00000000E+00  0.00000000E+00  0.00000000E+00
  0.00000000E+00  0.00000000E+00  0.00000000E+00
  0.00000000E+00  0.00000000E+00  0.00000000E+00
  0.00000000E+00  0.00000000E+00  0.00000000E+00
  0.00000000E+00  0.00000000E+00  0.00000000E+00
  0.00000000E+00  0.00000000E+00  0.00000000E+00
  0.00000000E+00  0.00000000E+00  0.00000000E+00
