Layer(26)                               
   1.00000000000000     
     2.5959741503343712   -1.5223026025804030   -0.0216319807741421
    -0.0203658138281849    3.0093305667607688    0.0216319763247703
    -0.2827683704209646    0.4897691817218413   69.1200910786235170
    Al
     7
Selective dynamics
Direct
  0.9263617722695757  0.0736382272745421  0.2352497702715952   T   T   T
  0.9471486170405787  0.0528513836849112  0.3317767311642343   T   T   T
  0.9610902924521111  0.0389097070131841  0.4275679314094084   T   T   T
  0.6061050311740711  0.3938949690303684  0.2997495628636945   T   T   T
  0.6445727900770947  0.3554272106754107  0.3963857338324935   T   T   T
  0.2678063045627830  0.7321936953404143  0.2677963106266207   T   T   T
  0.2921811584642554  0.7078188426230554  0.3640747786374736   T   T   T
 
  0.00000000E+00  0.00000000E+00  0.00000000E+00
  0.00000000E+00  0.00000000E+00  0.00000000E+00
  0.00000000E+00  0.00000000E+00  0.00000000E+00
  0.00000000E+00  0.00000000E+00  0.00000000E+00
  0.00000000E+00  0.00000000E+00  0.00000000E+00
  0.00000000E+00  0.00000000E+00  0.00000000E+00
  0.00000000E+00  0.00000000E+00  0.00000000E+00
  0.00000000E+00  0.00000000E+00  0.00000000E+00
  0.00000000E+00  0.00000000E+00  0.00000000E+00
  0.00000000E+00  0.00000000E+00  0.00000000E+00
  0.00000000E+00  0.00000000E+00  0.00000000E+00
  0.00000000E+00  0.00000000E+00  0.00000000E+00
  0.00000000E+00  0.00000000E+00  0.00000000E+00
  0.00000000E+00  0.00000000E+00  0.00000000E+00
  0.00000000E+00  0.00000000E+00  0.00000000E+00
  0.00000000E+00  0.00000000E+00  0.00000000E+00
  0.00000000E+00  0.00000000E+00  0.00000000E+00
  0.00000000E+00  0.00000000E+00  0.00000000E+00
  0.00000000E+00  0.00000000E+00  0.00000000E+00
  0.00000000E+00  0.00000000E+00  0.00000000E+00
  0.00000000E+00  0.00000000E+00  0.00000000E+00
  0.00000000E+00  0.00000000E+00  0.00000000E+00
  0.00000000E+00  0.00000000E+00  0.00000000E+00
  0.00000000E+00  0.00000000E+00  0.00000000E+00
  0.00000000E+00  0.00000000E+00  0.00000000E+00
  0.00000000E+00  0.00000000E+00  0.00000000E+00
