Layer26                                 
   1.00000000000000     
     2.5924236676563148   -1.4967362681920888    0.0000000000000000
     0.0000000000000000    2.9934725363841777    0.0000000000000000
     0.0000000000000003    0.0000000000000000   71.7716350437347046
   O    Mg
    11    10
Selective dynamics
Direct
  0.3333330000000032  0.6666669999999968  0.4320858396569491   T   T   T
  0.0000000000000000  0.0000000000000000  0.5014118217968999   T   T   T
  0.3333330000000032  0.6666669999999968  0.5357430789750950   T   T   T
  0.0000000000000000  0.0000000000000000  0.6044174628696481   T   T   T
  0.3333330000000032  0.6666669999999968  0.6387393741210516   T   T   T
  0.0000000000000000  0.0000000000000000  0.7072677738230340   T   T   T
  0.3333330000000032  0.6666669999999968  0.7412637337929695   T   T   T
  0.6666669999999968  0.3333330000000032  0.4670503176339125   T   T   T
  0.6666669999999968  0.3333330000000032  0.5700877464160712   T   T   T
  0.6666669999999968  0.3333330000000032  0.6730394777442683   T   T   T
  0.6666669999999968  0.3333330000000032  0.7736914153503847   T   T   T
  0.0000000000000000  0.0000000000000000  0.4509566019027389   T   T   T
  0.0000000000000000  0.0000000000000000  0.5539653043696546   T   T   T
  0.0000000000000000  0.0000000000000000  0.6569385019502363   T   T   T
  0.0000000000000000  0.0000000000000000  0.7605114545851208   T   T   T
  0.6666669999999968  0.3333330000000032  0.5196263676137676   T   T   T
  0.6666669999999968  0.3333330000000032  0.6226310336870640   T   T   T
  0.6666669999999968  0.3333330000000032  0.7255762026360912   T   T   T
  0.3333330000000032  0.6666669999999968  0.4852901705669836   T   T   T
  0.3333330000000032  0.6666669999999968  0.5883118151425180   T   T   T
  0.3333330000000032  0.6666669999999968  0.6912209319818174   T   T   T
 
  0.00000000E+00  0.00000000E+00  0.00000000E+00
  0.00000000E+00  0.00000000E+00  0.00000000E+00
  0.00000000E+00  0.00000000E+00  0.00000000E+00
  0.00000000E+00  0.00000000E+00  0.00000000E+00
  0.00000000E+00  0.00000000E+00  0.00000000E+00
  0.00000000E+00  0.00000000E+00  0.00000000E+00
  0.00000000E+00  0.00000000E+00  0.00000000E+00
  0.00000000E+00  0.00000000E+00  0.00000000E+00
  0.00000000E+00  0.00000000E+00  0.00000000E+00
  0.00000000E+00  0.00000000E+00  0.00000000E+00
  0.00000000E+00  0.00000000E+00  0.00000000E+00
  0.00000000E+00  0.00000000E+00  0.00000000E+00
  0.00000000E+00  0.00000000E+00  0.00000000E+00
  0.00000000E+00  0.00000000E+00  0.00000000E+00
  0.00000000E+00  0.00000000E+00  0.00000000E+00
  0.00000000E+00  0.00000000E+00  0.00000000E+00
  0.00000000E+00  0.00000000E+00  0.00000000E+00
  0.00000000E+00  0.00000000E+00  0.00000000E+00
  0.00000000E+00  0.00000000E+00  0.00000000E+00
  0.00000000E+00  0.00000000E+00  0.00000000E+00
  0.00000000E+00  0.00000000E+00  0.00000000E+00
