Layer26                                 
   1.00000000000000     
     2.5924236676563148   -1.4967362681920888   -0.0000000000000000
    -0.0000000000000000    2.9934725363841777   -0.0000000000000000
     0.0000000000000003    0.0000000000000000   71.7716350437347046
   O    Mg   
    11    10     
Selective dynamics
Direct
  0.3333330000000032  0.6666669999999968  0.4320858396569462   T   T   T
  0.0000000000000000  0.0000000000000000  0.5014118217969032   T   T   T
  0.3333330000000032  0.6666669999999968  0.5357430789750953   T   T   T
  0.0000000000000000  0.0000000000000000  0.6044174628696476   T   T   T
  0.3333330000000032  0.6666669999999968  0.6387393741210515   T   T   T
 -0.0000000000000000 -0.0000000000000000  0.7072677738230307   T   T   T
  0.3333330000000032  0.6666669999999968  0.7412637337929689   T   T   T
  0.6666669999999968  0.3333330000000032  0.4670503176339152   T   T   T
  0.6666669999999968  0.3333330000000032  0.5700877464160707   T   T   T
  0.6666669999999968  0.3333330000000032  0.6730394777442661   T   T   T
  0.6666669999999968  0.3333330000000032  0.7736914153503874   T   T   T
  0.0000000000000000  0.0000000000000000  0.4509566019027399   T   T   T
  0.0000000000000000  0.0000000000000000  0.5539653043696550   T   T   T
 -0.0000000000000000 -0.0000000000000000  0.6569385019502383   T   T   T
 -0.0000000000000000 -0.0000000000000000  0.7605114545851205   T   T   T
  0.6666669999999968  0.3333330000000032  0.5196263676137645   T   T   T
  0.6666669999999968  0.3333330000000032  0.6226310336870625   T   T   T
  0.6666669999999968  0.3333330000000032  0.7255762026360948   T   T   T
  0.3333330000000032  0.6666669999999968  0.4852901705669853   T   T   T
  0.3333330000000032  0.6666669999999968  0.5883118151425183   T   T   T
  0.3333330000000032  0.6666669999999968  0.6912209319818181   T   T   T

 
  0.00000000E+00  0.00000000E+00  0.00000000E+00
  0.00000000E+00  0.00000000E+00  0.00000000E+00
  0.00000000E+00  0.00000000E+00  0.00000000E+00
  0.00000000E+00  0.00000000E+00  0.00000000E+00
  0.00000000E+00  0.00000000E+00  0.00000000E+00
  0.00000000E+00  0.00000000E+00  0.00000000E+00
  0.00000000E+00  0.00000000E+00  0.00000000E+00
  0.00000000E+00  0.00000000E+00  0.00000000E+00
  0.00000000E+00  0.00000000E+00  0.00000000E+00
  0.00000000E+00  0.00000000E+00  0.00000000E+00
  0.00000000E+00  0.00000000E+00  0.00000000E+00
  0.00000000E+00  0.00000000E+00  0.00000000E+00
  0.00000000E+00  0.00000000E+00  0.00000000E+00
  0.00000000E+00  0.00000000E+00  0.00000000E+00
  0.00000000E+00  0.00000000E+00  0.00000000E+00
  0.00000000E+00  0.00000000E+00  0.00000000E+00
  0.00000000E+00  0.00000000E+00  0.00000000E+00
  0.00000000E+00  0.00000000E+00  0.00000000E+00
  0.00000000E+00  0.00000000E+00  0.00000000E+00
  0.00000000E+00  0.00000000E+00  0.00000000E+00
  0.00000000E+00  0.00000000E+00  0.00000000E+00
  0.00000000E+00  0.00000000E+00  0.00000000E+00
  0.00000000E+00  0.00000000E+00  0.00000000E+00
  0.00000000E+00  0.00000000E+00  0.00000000E+00
  0.00000000E+00  0.00000000E+00  0.00000000E+00
  0.00000000E+00  0.00000000E+00  0.00000000E+00
  0.00000000E+00  0.00000000E+00  0.00000000E+00
  0.00000000E+00  0.00000000E+00  0.00000000E+00
