Layer                                   
   1.00000000000000     
     2.5925900057573852   -1.4952752265876454    0.0518951647512091
     0.0013482762012733    2.9928857367913029   -0.0518951489622574
     0.4089676063014350   -0.7083524578609989   40.6923757733179343
   O    Mg   Al
     9    10     7
Selective dynamics
Direct
  0.5537401169050040  0.4462598831028758  0.3434212468758764   T   T   T
  0.5000904083316962  0.4999095916675580  0.5257890940730583   T   T   T
  0.4463155844478174  0.5536844155428888  0.7081477776397234   T   T   T
  0.2391702968459306  0.7608297031425515  0.2826662269174632   T   T   T
  0.8689032678254468  0.1310967321795126  0.4042438693244771   T   T   T
  0.1845404682248455  0.8154595317737475  0.4650354119474441   T   T   T
  0.8156213573089360  0.1843786426912271  0.5865439930522651   T   T   T
  0.1311709742221651  0.8688290257714610  0.6473351370458967   T   T   T
  0.7608758578231497  0.2391241421890931  0.7689144630302961   T   T   T
  0.5823594222246695  0.4176405777808658  0.2516258358747813   T   T   T
  0.5267237440366509  0.4732762559664538  0.4346258202337671   T   T   T
  0.4734000043301589  0.5265999956683987  0.6169446094842843   T   T   T
  0.4176783990444036  0.5823216009472332  0.7999548481702167   T   T   T
  0.8963609232602670  0.1036390767544199  0.3130289858364839   T   T   T
  0.2112306737603071  0.7887693262470541  0.3738353473713777   T   T   T
  0.8423490454126605  0.1576509545893855  0.4954062688932012   T   T   T
  0.1578397017164805  0.8421602982825814  0.5561596308019188   T   T   T
  0.7888136580707591  0.2111863419233435  0.6777434629309788   T   T   T
  0.1036783782890941  0.8963216216980664  0.7385717362484953   T   T   T
  0.9997795593958321  0.0002204405984552  0.0257875741754105   T   T   T
  0.9375976924688190  0.0624023075458323  0.1921571384400131   T   T   T
  0.6237882389816609  0.3762117609929299  0.1371783508511791   T   T   T
  0.3113321580433008  0.6886678419532960  0.0813931865440307   T   T   T
  0.0623508771380298  0.9376491228451233  0.8594268582152000   T   T   T
  0.6882989299145279  0.3117010700966347  0.9701802150517918   T   T   T
  0.3759902619773862  0.6240097380490245  0.9143979109703709   T   T   T
 
  0.00000000E+00  0.00000000E+00  0.00000000E+00
  0.00000000E+00  0.00000000E+00  0.00000000E+00
  0.00000000E+00  0.00000000E+00  0.00000000E+00
  0.00000000E+00  0.00000000E+00  0.00000000E+00
  0.00000000E+00  0.00000000E+00  0.00000000E+00
  0.00000000E+00  0.00000000E+00  0.00000000E+00
  0.00000000E+00  0.00000000E+00  0.00000000E+00
  0.00000000E+00  0.00000000E+00  0.00000000E+00
  0.00000000E+00  0.00000000E+00  0.00000000E+00
  0.00000000E+00  0.00000000E+00  0.00000000E+00
  0.00000000E+00  0.00000000E+00  0.00000000E+00
  0.00000000E+00  0.00000000E+00  0.00000000E+00
  0.00000000E+00  0.00000000E+00  0.00000000E+00
  0.00000000E+00  0.00000000E+00  0.00000000E+00
  0.00000000E+00  0.00000000E+00  0.00000000E+00
  0.00000000E+00  0.00000000E+00  0.00000000E+00
  0.00000000E+00  0.00000000E+00  0.00000000E+00
  0.00000000E+00  0.00000000E+00  0.00000000E+00
  0.00000000E+00  0.00000000E+00  0.00000000E+00
  0.00000000E+00  0.00000000E+00  0.00000000E+00
  0.00000000E+00  0.00000000E+00  0.00000000E+00
  0.00000000E+00  0.00000000E+00  0.00000000E+00
  0.00000000E+00  0.00000000E+00  0.00000000E+00
  0.00000000E+00  0.00000000E+00  0.00000000E+00
  0.00000000E+00  0.00000000E+00  0.00000000E+00
  0.00000000E+00  0.00000000E+00  0.00000000E+00
