Layer                                   
   1.00000000000000     
     2.5925900057573852   -1.4952752265876454    0.0518951647512091
     0.0013482762012733    2.9928857367913029   -0.0518951489622574
0.4089676063014350 -0.7083524578609989 40.6923757733179330
   O    Mg   Al
     9    10     7
Selective dynamics
Direct
  0.5503459116454432  0.4496540883624374  0.3429052274962580   T   T   T
  0.5000874223284624  0.4999125776707922  0.5257885812400063   T   T   T
  0.4498290808617390  0.5501709191289690  0.7086388344842048   T   T   T
  0.2355506247324623  0.7644493752560205  0.2819867713658902   T   T   T
  0.8658978032223845  0.1341021967825806  0.4038869729789603   T   T   T
  0.1828676706135034  0.8171323293850917  0.4648390525423378   T   T   T
  0.8173723678600033  0.1826276321401605  0.5867442326569287   T   T   T
  0.1343058072438431  0.8656941927497889  0.6476928701236425   T   T   T
  0.7644931888746893  0.2355068111375513  0.7695850804815724   T   T   T
  0.5784956143589446  0.4215043856465897  0.2508654510631192   T   T   T
  0.5242522540354628  0.4757477459676432  0.4343689177099029   T   T   T
  0.4759807192927054  0.5240192807058506  0.6172089259568441   T   T   T
  0.4214827384421141  0.5785172615495217  0.8006886463357833   T   T   T
  0.8928958049661145  0.1071041950485707  0.3124502791797154   T   T   T
  0.2079009480622853  0.7920990519450717  0.3734217662753226   T   T   T
  0.8414509232129813  0.1585490767890622  0.4953205840289314   T   T   T
  0.1587304183316595  0.8412695816674010  0.5562705937513932   T   T   T
  0.7923117999532269  0.2076882000408785  0.6781402358076071   T   T   T
  0.1072439721058965  0.8927560278812596  0.7391355896155742   T   T   T
 -0.0002438407517926  0.0002438407460795  0.0257883375607507   T   T   T
 -0.0670810449864543  0.0670810450011010  0.1916227327844197   T   T   T
  0.6198413975308191  0.3801586024437679  0.1368053950139050   T   T   T
  0.3097843570312253  0.6902156429653679  0.0811928038698437   T   T   T
  0.0667448154499096 -0.0667448154667529  0.8599914196178265   T   T   T
  0.6897711078839789  0.3102288921271835  0.9703857509068190   T   T   T
  0.3796881376983927  0.6203118623280148  0.9147899471524414   T   T   T
 
  0.00000000E+00  0.00000000E+00  0.00000000E+00
  0.00000000E+00  0.00000000E+00  0.00000000E+00
  0.00000000E+00  0.00000000E+00  0.00000000E+00
  0.00000000E+00  0.00000000E+00  0.00000000E+00
  0.00000000E+00  0.00000000E+00  0.00000000E+00
  0.00000000E+00  0.00000000E+00  0.00000000E+00
  0.00000000E+00  0.00000000E+00  0.00000000E+00
  0.00000000E+00  0.00000000E+00  0.00000000E+00
  0.00000000E+00  0.00000000E+00  0.00000000E+00
  0.00000000E+00  0.00000000E+00  0.00000000E+00
  0.00000000E+00  0.00000000E+00  0.00000000E+00
  0.00000000E+00  0.00000000E+00  0.00000000E+00
  0.00000000E+00  0.00000000E+00  0.00000000E+00
  0.00000000E+00  0.00000000E+00  0.00000000E+00
  0.00000000E+00  0.00000000E+00  0.00000000E+00
  0.00000000E+00  0.00000000E+00  0.00000000E+00
  0.00000000E+00  0.00000000E+00  0.00000000E+00
  0.00000000E+00  0.00000000E+00  0.00000000E+00
  0.00000000E+00  0.00000000E+00  0.00000000E+00
  0.00000000E+00  0.00000000E+00  0.00000000E+00
  0.00000000E+00  0.00000000E+00  0.00000000E+00
  0.00000000E+00  0.00000000E+00  0.00000000E+00
  0.00000000E+00  0.00000000E+00  0.00000000E+00
  0.00000000E+00  0.00000000E+00  0.00000000E+00
  0.00000000E+00  0.00000000E+00  0.00000000E+00
  0.00000000E+00  0.00000000E+00  0.00000000E+00
