Layer20                                 
   1.00000000000000     
     2.5829450305551194   -1.4915994750886601    0.0326812596633896
    -0.0002947304119171    2.9826884607492659   -0.0326812167338692
     0.4549586670592201   -0.7880080400697314   70.2268749128016481
   O    Mg   
     9    10    
Selective dynamics
Direct
  0.5463642515088758  0.4536357303523747  0.4962498003123820   T   T   T
  0.5126104888651563  0.4873895049912770  0.6009763757916076   T   T   T
  0.4795952027242658  0.5204048059544143  0.7059028349051846   T   T   T
  0.2253468204230958  0.7746531605963939  0.4614308457947999   T   T   T
  0.8679378001306096  0.1320621843973587  0.5311417675349960   T   T   T
  0.1901405400613474  0.8098594487716303  0.5660404280705181   T   T   T
  0.8349453932013525  0.1650546057388164  0.6359543880149553   T   T   T
  0.1572527857423697  0.8427472183016669  0.6709296377597347   T   T   T
  0.8014857226591606  0.1985142902309599  0.7408064715188550   T   T   T
  0.5651316319683517  0.4348683482349979  0.4436588020890368   T   T   T
  0.5288856313092768  0.4711143552458751  0.5486709516293128   T   T   T
  0.4960251573405432  0.5039748443740805  0.6535222912659896   T   T   T
  0.4620350365196204  0.5379649784635272  0.7591444556837016   T   T   T
  0.8857844950313239  0.1142154861203662  0.4788842924162127   T   T   T
  0.2070685838032402  0.7929313991181340  0.5137690740584775   T   T   T
  0.8513420027972936  0.1486579886895440  0.5835838354097010   T   T   T
  0.1737501197927381  0.8262498767303883  0.6185444459414240   T   T   T
  0.8183993298812005  0.1816006766667227  0.6884958947379030   T   T   T
  0.1405695986917092  0.8594304122792323  0.7234547191220480   T   T   T
 
 
  0.00000000E+00  0.00000000E+00  0.00000000E+00
  0.00000000E+00  0.00000000E+00  0.00000000E+00
  0.00000000E+00  0.00000000E+00  0.00000000E+00
  0.00000000E+00  0.00000000E+00  0.00000000E+00
  0.00000000E+00  0.00000000E+00  0.00000000E+00
  0.00000000E+00  0.00000000E+00  0.00000000E+00
  0.00000000E+00  0.00000000E+00  0.00000000E+00
  0.00000000E+00  0.00000000E+00  0.00000000E+00
  0.00000000E+00  0.00000000E+00  0.00000000E+00
  0.00000000E+00  0.00000000E+00  0.00000000E+00
  0.00000000E+00  0.00000000E+00  0.00000000E+00
  0.00000000E+00  0.00000000E+00  0.00000000E+00
  0.00000000E+00  0.00000000E+00  0.00000000E+00
  0.00000000E+00  0.00000000E+00  0.00000000E+00
  0.00000000E+00  0.00000000E+00  0.00000000E+00
  0.00000000E+00  0.00000000E+00  0.00000000E+00
  0.00000000E+00  0.00000000E+00  0.00000000E+00
  0.00000000E+00  0.00000000E+00  0.00000000E+00
  0.00000000E+00  0.00000000E+00  0.00000000E+00
  0.00000000E+00  0.00000000E+00  0.00000000E+00
  0.00000000E+00  0.00000000E+00  0.00000000E+00
  0.00000000E+00  0.00000000E+00  0.00000000E+00
  0.00000000E+00  0.00000000E+00  0.00000000E+00
  0.00000000E+00  0.00000000E+00  0.00000000E+00
  0.00000000E+00  0.00000000E+00  0.00000000E+00
  0.00000000E+00  0.00000000E+00  0.00000000E+00
