Layer                                   
   1.00000000000000     
     2.6004576726853683   -1.5013744842201957    0.0000000000000000
     0.0000000000000000    3.0027489684403914    0.0000000000000000
     0.0000000000000007   -0.0000000000000001   40.0842691232624517
   O    Mg   Al
    10     9     7
Selective dynamics
Direct
 -0.0000000000000000 -0.0000000000000000  0.2473279121757311   T   T   T
  0.3333330000000032  0.6666669999999968  0.3073894682153354   T   T   T
  0.0000000000000000 -0.0000000000000000  0.4323306628982433   T   T   T
  0.3333330000000032  0.6666669999999968  0.4947698031904585   T   T   T
  0.0000000000000000 -0.0000000000000000  0.6197415064507464   T   T   T
  0.3333330000000032  0.6666669999999968  0.6822044430384883   T   T   T
  0.0000000000000000 -0.0000000000000000  0.8047379753152880   T   T   T
  0.6666669999999968  0.3333330000000032  0.3698728008463940   T   T   T
  0.6666669999999968  0.3333330000000032  0.5573014233313014   T   T   T
  0.6666669999999968  0.3333330000000032  0.7446949407382593   T   T   T
  0.0000000000000000 -0.0000000000000000  0.3386020249700585   T   T   T
  0.0000000000000000 -0.0000000000000000  0.5260405594942705   T   T   T
  0.0000000000000000 -0.0000000000000000  0.7134639538605768   T   T   T
  0.6666669999999968  0.3333330000000032  0.2760339709769881   T   T   T
  0.6666669999999968  0.3333330000000032  0.4635433604689200   T   T   T
  0.6666669999999968  0.3333330000000032  0.6509914772367382   T   T   T
  0.3333330000000032  0.6666669999999968  0.4010858700654115   T   T   T
  0.3333330000000032  0.6666669999999968  0.5885346336839096   T   T   T
  0.3333330000000032  0.6666669999999968  0.7760314717887437   T   T   T
  0.0000000000000000 -0.0000000000000000  0.0260382926923596   T   T   T
 -0.0000000000000000 -0.0000000000000000  0.2040669460241110   T   T   T
  0.6666669999999968  0.3333330000000032  0.1456036161957459   T   T   T
  0.3333330000000032  0.6666669999999968  0.0853204482182025   T   T   T
  0.0000000000000000 -0.0000000000000000  0.8480129998842153   T   T   T
  0.6666669999999968  0.3333330000000032  0.9667558916950241   T   T   T
  0.3333330000000032  0.6666669999999968  0.9064705465444829   T   T   T
 
  0.00000000E+00  0.00000000E+00  0.00000000E+00
  0.00000000E+00  0.00000000E+00  0.00000000E+00
  0.00000000E+00  0.00000000E+00  0.00000000E+00
  0.00000000E+00  0.00000000E+00  0.00000000E+00
  0.00000000E+00  0.00000000E+00  0.00000000E+00
  0.00000000E+00  0.00000000E+00  0.00000000E+00
  0.00000000E+00  0.00000000E+00  0.00000000E+00
  0.00000000E+00  0.00000000E+00  0.00000000E+00
  0.00000000E+00  0.00000000E+00  0.00000000E+00
  0.00000000E+00  0.00000000E+00  0.00000000E+00
  0.00000000E+00  0.00000000E+00  0.00000000E+00
  0.00000000E+00  0.00000000E+00  0.00000000E+00
  0.00000000E+00  0.00000000E+00  0.00000000E+00
  0.00000000E+00  0.00000000E+00  0.00000000E+00
  0.00000000E+00  0.00000000E+00  0.00000000E+00
  0.00000000E+00  0.00000000E+00  0.00000000E+00
  0.00000000E+00  0.00000000E+00  0.00000000E+00
  0.00000000E+00  0.00000000E+00  0.00000000E+00
  0.00000000E+00  0.00000000E+00  0.00000000E+00
  0.00000000E+00  0.00000000E+00  0.00000000E+00
  0.00000000E+00  0.00000000E+00  0.00000000E+00
  0.00000000E+00  0.00000000E+00  0.00000000E+00
  0.00000000E+00  0.00000000E+00  0.00000000E+00
  0.00000000E+00  0.00000000E+00  0.00000000E+00
  0.00000000E+00  0.00000000E+00  0.00000000E+00
  0.00000000E+00  0.00000000E+00  0.00000000E+00
