Layer                                   
   1.00000000000000     
     2.6004576726853683   -1.5013744842201957    0.0000000000000000
     0.0000000000000000    3.0027489684403914    0.0000000000000000
     0.0000000000000007   -0.0000000000000001   43.5531001050832387
   O    Mg   Al
    10     9     7
Selective dynamics
Direct
 -0.0000000000000000 -0.0000000000000000  0.2732615102275707   T   T   T
  0.3333330000000032  0.6666669999999968  0.3276183204185009   T   T   T
 -0.0000000000000000 -0.0000000000000000  0.4409463842305125   T   T   T
  0.3333330000000032  0.6666669999999968  0.4976240694018850   T   T   T
 -0.0000000000000000 -0.0000000000000000  0.6110047843906636   T   T   T
  0.3333330000000032  0.6666669999999968  0.6676564123686224   T   T   T
 -0.0000000000000000 -0.0000000000000000  0.7786614298810551   T   T   T
  0.6666669999999968  0.3333330000000032  0.3842864989406834   T   T   T
  0.6666669999999968  0.3333330000000032  0.5543344523218504   T   T   T
  0.6666669999999968  0.3333330000000032  0.7243114898840538   T   T   T
 -0.0000000000000000 -0.0000000000000000  0.3559392366721114   T   T   T
 -0.0000000000000000 -0.0000000000000000  0.5259804143316569   T   T   T
 -0.0000000000000000 -0.0000000000000000  0.6960048299367991   T   T   T
  0.6666669999999968  0.3333330000000032  0.2991915211267013   T   T   T
  0.6666669999999968  0.3333330000000032  0.4692612456420510   T   T   T
  0.6666669999999968  0.3333330000000032  0.6393624079668538   T   T   T
  0.3333330000000032  0.6666669999999968  0.4125916419426929   T   T   T
  0.3333330000000032  0.6666669999999968  0.5826963512013907   T   T   T
  0.3333330000000032  0.6666669999999968  0.7527252096360939   T   T   T
 -0.0000000000000000 -0.0000000000000000  0.0265803850230265   T   T   T
 -0.0000000000000000 -0.0000000000000000  0.2336065528387495   T   T   T
  0.6666669999999968  0.3333330000000032  0.1831792754920683   T   T   T
  0.3333330000000032  0.6666669999999968  0.0786676332694189   T   T   T
 -0.0000000000000000 -0.0000000000000000  0.8182988609417631   T   T   T
  0.6666669999999968  0.3333330000000032  0.9745097538121783   T   T   T
  0.3333330000000032  0.6666669999999968  0.8686663281010559   T   T   T
 
  0.00000000E+00  0.00000000E+00  0.00000000E+00
  0.00000000E+00  0.00000000E+00  0.00000000E+00
  0.00000000E+00  0.00000000E+00  0.00000000E+00
  0.00000000E+00  0.00000000E+00  0.00000000E+00
  0.00000000E+00  0.00000000E+00  0.00000000E+00
  0.00000000E+00  0.00000000E+00  0.00000000E+00
  0.00000000E+00  0.00000000E+00  0.00000000E+00
  0.00000000E+00  0.00000000E+00  0.00000000E+00
  0.00000000E+00  0.00000000E+00  0.00000000E+00
  0.00000000E+00  0.00000000E+00  0.00000000E+00
  0.00000000E+00  0.00000000E+00  0.00000000E+00
  0.00000000E+00  0.00000000E+00  0.00000000E+00
  0.00000000E+00  0.00000000E+00  0.00000000E+00
  0.00000000E+00  0.00000000E+00  0.00000000E+00
  0.00000000E+00  0.00000000E+00  0.00000000E+00
  0.00000000E+00  0.00000000E+00  0.00000000E+00
  0.00000000E+00  0.00000000E+00  0.00000000E+00
  0.00000000E+00  0.00000000E+00  0.00000000E+00
  0.00000000E+00  0.00000000E+00  0.00000000E+00
  0.00000000E+00  0.00000000E+00  0.00000000E+00
  0.00000000E+00  0.00000000E+00  0.00000000E+00
  0.00000000E+00  0.00000000E+00  0.00000000E+00
  0.00000000E+00  0.00000000E+00  0.00000000E+00
  0.00000000E+00  0.00000000E+00  0.00000000E+00
  0.00000000E+00  0.00000000E+00  0.00000000E+00
  0.00000000E+00  0.00000000E+00  0.00000000E+00
