Layer                                   
   1.00000000000000     
     2.5925900057573852   -1.4952752265876454    0.0518951647512091
     0.0013482762012733    2.9928857367913029   -0.0518951489622574
     0.4089676063014350   -0.7083524578609989   43.1097446311388026
   O    Mg   Al
     9    10     7
Selective dynamics
Direct
  0.5562804988875307  0.4437195011203491  0.3499608837422508   T   T   T
  0.5000211940290477  0.4999788059702063  0.5257896332522605   T   T   T
  0.4437538136838599  0.5562461863068463  0.7016188393583115   T   T   T
  0.2418565365005850  0.7581434634878973  0.2913858163860819   T   T   T
  0.8707865968720228  0.1292134031329365  0.4085882505158347   T   T   T
  0.1853836506880257  0.8146163493105600  0.4671794602569679   T   T   T
  0.8146569861251084  0.1853430138750552  0.5844022279979614   T   T   T
  0.1292519909514080  0.8707480090422185  0.6429911957872992   T   T   T
  0.7581725620136445  0.2418274379985981  0.7601905322584918   T   T   T
  0.5849028116492823  0.4150971883562528  0.2613344070582425   T   T   T
  0.5280711954260887  0.4719288045770160  0.4378926744342196   T   T   T
  0.4719689964981019  0.5280310035004556  0.6136852271381743   T   T   T
  0.4151214436015597  0.5848785563900771  0.7902444016301474   T   T   T
  0.8990494540701878  0.1009505459444990  0.3206754271583450   T   T   T
  0.2135127577015208  0.7864872423058407  0.3792969651402607   T   T   T
  0.8426974762141525  0.1573025237878937  0.4964832627867991   T   T   T
  0.1573455541931331  0.8426544458059292  0.5550941323989954   T   T   T
  0.7865229644321273  0.2134770355619753  0.6722838621501228   T   T   T
  0.1009816176991736  0.8990183822879869  0.7309037219262760   T   T   T
  0.9999173903927183  0.0000826096015688  0.0257882497198835   T   T   T
  0.9385490805386542  0.0614509194759974  0.2006950140373459   T   T   T
  0.6264103583124694  0.3735896416621213  0.1411081259965987   T   T   T
  0.3129269149957610  0.6870730850008353  0.0830511872795822   T   T   T
  0.0614335925888159  0.9385664073943373  0.8508800315255152   T   T   T
  0.6869424610480460  0.3130575389631164  0.9685246880690969   T   T   T
  0.3734821008869665  0.6265178991394443  0.9104667819949077   T   T   T
 
  0.00000000E+00  0.00000000E+00  0.00000000E+00
  0.00000000E+00  0.00000000E+00  0.00000000E+00
  0.00000000E+00  0.00000000E+00  0.00000000E+00
  0.00000000E+00  0.00000000E+00  0.00000000E+00
  0.00000000E+00  0.00000000E+00  0.00000000E+00
  0.00000000E+00  0.00000000E+00  0.00000000E+00
  0.00000000E+00  0.00000000E+00  0.00000000E+00
  0.00000000E+00  0.00000000E+00  0.00000000E+00
  0.00000000E+00  0.00000000E+00  0.00000000E+00
  0.00000000E+00  0.00000000E+00  0.00000000E+00
  0.00000000E+00  0.00000000E+00  0.00000000E+00
  0.00000000E+00  0.00000000E+00  0.00000000E+00
  0.00000000E+00  0.00000000E+00  0.00000000E+00
  0.00000000E+00  0.00000000E+00  0.00000000E+00
  0.00000000E+00  0.00000000E+00  0.00000000E+00
  0.00000000E+00  0.00000000E+00  0.00000000E+00
  0.00000000E+00  0.00000000E+00  0.00000000E+00
  0.00000000E+00  0.00000000E+00  0.00000000E+00
  0.00000000E+00  0.00000000E+00  0.00000000E+00
  0.00000000E+00  0.00000000E+00  0.00000000E+00
  0.00000000E+00  0.00000000E+00  0.00000000E+00
  0.00000000E+00  0.00000000E+00  0.00000000E+00
  0.00000000E+00  0.00000000E+00  0.00000000E+00
  0.00000000E+00  0.00000000E+00  0.00000000E+00
  0.00000000E+00  0.00000000E+00  0.00000000E+00
  0.00000000E+00  0.00000000E+00  0.00000000E+00
