Layer26                                 
   1.00000000000000     
     2.5924236676563148   -1.4967362681920888    0.0000000000000000
     0.0000000000000000    2.9934725363841777    0.0000000000000000
     0.0000000000000003    0.0000000000000000   71.7716350437347046
   Al
     7
Selective dynamics
Direct
  0.0000000000000000  0.0000000000000000  0.2272446489953666   T   T   T
  0.0000000000000000  0.0000000000000000  0.3206285742329413   T   T   T
  0.0000000000000000  0.0000000000000000  0.4128575356069106   T   T   T
  0.6666669999999968  0.3333330000000032  0.2895799125200256   T   T   T
  0.6666669999999968  0.3333330000000032  0.3831278255182156   T   T   T
  0.3333330000000032  0.6666669999999968  0.2586669277289175   T   T   T
  0.3333330000000032  0.6666669999999968  0.3518611487813601   T   T   T
 
  0.00000000E+00  0.00000000E+00  0.00000000E+00
  0.00000000E+00  0.00000000E+00  0.00000000E+00
  0.00000000E+00  0.00000000E+00  0.00000000E+00
  0.00000000E+00  0.00000000E+00  0.00000000E+00
  0.00000000E+00  0.00000000E+00  0.00000000E+00
  0.00000000E+00  0.00000000E+00  0.00000000E+00
  0.00000000E+00  0.00000000E+00  0.00000000E+00
