Layer                                   
   1.00000000000000     
     2.5919820456764819   -1.4964810761798768    0.0000000000000000
     0.0000000000000001    2.9929621523597536    0.0000000000000000
     0.0000000000000000   -0.0000000000000001   41.4150513653204158
   O    Mg   Al
     9    10     7
Selective dynamics
Direct
 -0.0000000000000000  0.0000000000000000  0.3464932461256490   T   T   T
  0.3333330000000032  0.6666669999999968  0.4062645637363033   T   T   T
 -0.0000000000000000  0.0000000000000000  0.5257911739063872   T   T   T
  0.3333330000000032  0.6666669999999968  0.5855252321347044   T   T   T
 -0.0000000000000000  0.0000000000000000  0.7050543168943906   T   T   T
  0.3333330000000032  0.6666669999999968  0.7647634816705415   T   T   T
  0.6666669999999968  0.3333330000000032  0.2867712613521414   T   T   T
  0.6666669999999968  0.3333330000000032  0.4660476380863587   T   T   T
  0.6666669999999968  0.3333330000000032  0.6452941262528273   T   T   T
 -0.0000000000000000  0.0000000000000000  0.2562069323342588   T   T   T
 -0.0000000000000000  0.0000000000000000  0.4361711380617672   T   T   T
 -0.0000000000000000  0.0000000000000000  0.6153846627924155   T   T   T
 -0.0000000000000000  0.0000000000000000  0.7953534804881965   T   T   T
  0.6666669999999968  0.3333330000000032  0.3764071013017811   T   T   T
  0.6666669999999968  0.3333330000000032  0.5556372547066093   T   T   T
  0.6666669999999968  0.3333330000000032  0.7348879088540814   T   T   T
  0.3333330000000032  0.6666669999999968  0.3166726171185506   T   T   T
  0.3333330000000032  0.6666669999999968  0.4959173969925518   T   T   T
  0.3333330000000032  0.6666669999999968  0.6751424046432463   T   T   T
 -0.0000000000000000  0.0000000000000000  0.0258453390688686   T   T   T
 -0.0000000000000000  0.0000000000000000  0.1889924294269342   T   T   T
  0.6666669999999968  0.3333330000000032  0.1345465597610100   T   T   T
  0.3333330000000032  0.6666669999999968  0.0799685940893220   T   T   T
 -0.0000000000000000  0.0000000000000000  0.8625962987747150   T   T   T
  0.6666669999999968  0.3333330000000032  0.9716873834409775   T   T   T
  0.3333330000000032  0.6666669999999968  0.9170924579854203   T   T   T
 
  0.00000000E+00  0.00000000E+00  0.00000000E+00
  0.00000000E+00  0.00000000E+00  0.00000000E+00
  0.00000000E+00  0.00000000E+00  0.00000000E+00
  0.00000000E+00  0.00000000E+00  0.00000000E+00
  0.00000000E+00  0.00000000E+00  0.00000000E+00
  0.00000000E+00  0.00000000E+00  0.00000000E+00
  0.00000000E+00  0.00000000E+00  0.00000000E+00
  0.00000000E+00  0.00000000E+00  0.00000000E+00
  0.00000000E+00  0.00000000E+00  0.00000000E+00
  0.00000000E+00  0.00000000E+00  0.00000000E+00
  0.00000000E+00  0.00000000E+00  0.00000000E+00
  0.00000000E+00  0.00000000E+00  0.00000000E+00
  0.00000000E+00  0.00000000E+00  0.00000000E+00
  0.00000000E+00  0.00000000E+00  0.00000000E+00
  0.00000000E+00  0.00000000E+00  0.00000000E+00
  0.00000000E+00  0.00000000E+00  0.00000000E+00
  0.00000000E+00  0.00000000E+00  0.00000000E+00
  0.00000000E+00  0.00000000E+00  0.00000000E+00
  0.00000000E+00  0.00000000E+00  0.00000000E+00
  0.00000000E+00  0.00000000E+00  0.00000000E+00
  0.00000000E+00  0.00000000E+00  0.00000000E+00
  0.00000000E+00  0.00000000E+00  0.00000000E+00
  0.00000000E+00  0.00000000E+00  0.00000000E+00
  0.00000000E+00  0.00000000E+00  0.00000000E+00
  0.00000000E+00  0.00000000E+00  0.00000000E+00
  0.00000000E+00  0.00000000E+00  0.00000000E+00
