Layer                                   
   1.00000000000000     
     2.6004576726853683   -1.5013744842201957    0.0000000000000000
     0.0000000000000000    3.0027489684403914    0.0000000000000000
     0.0000000000000007   -0.0000000000000001   38.9279921293221847
   O    Mg   Al
    10     9     7
Selective dynamics
Direct
  0.0000000000000000  0.0000000000000000  0.2427273458159507   T   T   T
  0.3333330000000032  0.6666669999999968  0.3036955499744214   T   T   T
  0.0000000000000000  0.0000000000000000  0.4307522878001733   T   T   T
  0.3333330000000032  0.6666669999999968  0.4943045294970044   T   T   T
  0.0000000000000000  0.0000000000000000  0.6213956948969832   T   T   T
  0.3333330000000032  0.6666669999999968  0.6849027107277648   T   T   T
  0.0000000000000000  0.0000000000000000  0.8093166441652890   T   T   T
  0.6666669999999968  0.3333330000000032  0.3672148792898051   T   T   T
  0.6666669999999968  0.3333330000000032  0.5578600696965489   T   T   T
  0.6666669999999968  0.3333330000000032  0.7483817839935381   T   T   T
  0.0000000000000000  0.0000000000000000  0.3354666610595704   T   T   T
  0.0000000000000000  0.0000000000000000  0.5260953244701254   T   T   T
  0.0000000000000000  0.0000000000000000  0.7166200461462134   T   T   T
  0.6666669999999968  0.3333330000000032  0.2718755872917564   T   T   T
  0.6666669999999968  0.3333330000000032  0.4625331904160673   T   T   T
  0.6666669999999968  0.3333330000000032  0.6531489145964274   T   T   T
  0.3333330000000032  0.6666669999999968  0.3989889224079937   T   T   T
  0.3333330000000032  0.6666669999999968  0.5896428277013999   T   T   T
  0.3333330000000032  0.6666669999999968  0.7801660347809544   T   T   T
  0.0000000000000000  0.0000000000000000  0.0259628845105080   T   T   T
  0.0000000000000000  0.0000000000000000  0.1983943558035566   T   T   T
  0.6666669999999968  0.3333330000000032  0.1419306927031385   T   T   T
  0.3333330000000032  0.6666669999999968  0.0836881463890178   T   T   T
  0.0000000000000000  0.0000000000000000  0.8536183838976623   T   T   T
  0.6666669999999968  0.3333330000000032  0.9682442453411982   T   T   T
  0.3333330000000032  0.6666669999999968  0.9100392866269574   T   T   T
 
  0.00000000E+00  0.00000000E+00  0.00000000E+00
  0.00000000E+00  0.00000000E+00  0.00000000E+00
  0.00000000E+00  0.00000000E+00  0.00000000E+00
  0.00000000E+00  0.00000000E+00  0.00000000E+00
  0.00000000E+00  0.00000000E+00  0.00000000E+00
  0.00000000E+00  0.00000000E+00  0.00000000E+00
  0.00000000E+00  0.00000000E+00  0.00000000E+00
  0.00000000E+00  0.00000000E+00  0.00000000E+00
  0.00000000E+00  0.00000000E+00  0.00000000E+00
  0.00000000E+00  0.00000000E+00  0.00000000E+00
  0.00000000E+00  0.00000000E+00  0.00000000E+00
  0.00000000E+00  0.00000000E+00  0.00000000E+00
  0.00000000E+00  0.00000000E+00  0.00000000E+00
  0.00000000E+00  0.00000000E+00  0.00000000E+00
  0.00000000E+00  0.00000000E+00  0.00000000E+00
  0.00000000E+00  0.00000000E+00  0.00000000E+00
  0.00000000E+00  0.00000000E+00  0.00000000E+00
  0.00000000E+00  0.00000000E+00  0.00000000E+00
  0.00000000E+00  0.00000000E+00  0.00000000E+00
  0.00000000E+00  0.00000000E+00  0.00000000E+00
  0.00000000E+00  0.00000000E+00  0.00000000E+00
  0.00000000E+00  0.00000000E+00  0.00000000E+00
  0.00000000E+00  0.00000000E+00  0.00000000E+00
  0.00000000E+00  0.00000000E+00  0.00000000E+00
  0.00000000E+00  0.00000000E+00  0.00000000E+00
  0.00000000E+00  0.00000000E+00  0.00000000E+00
