Layer                                   
   1.00000000000000     
     2.6004576726853683   -1.5013744842201957    0.0000000000000000
     0.0000000000000000    3.0027489684403914    0.0000000000000000
     0.0000000000000007   -0.0000000000000001   38.9279921293221847
   O    Mg   Al
    10     9     7
Selective dynamics
Direct
  0.0000000000000000  0.0000000000000000  0.2427207791894171   T   T   T
  0.3333330000000032  0.6666669999999968  0.3037047357224951   T   T   T
  0.0000000000000000  0.0000000000000000  0.4307578735200879   T   T   T
  0.3333330000000032  0.6666669999999968  0.4943065257814943   T   T   T
  0.0000000000000000  0.0000000000000000  0.6214059688471716   T   T   T
  0.3333330000000032  0.6666669999999968  0.6848966640248906   T   T   T
  0.0000000000000000  0.0000000000000000  0.8092971736449693   T   T   T
  0.6666669999999968  0.3333330000000032  0.3672156143199650   T   T   T
  0.6666669999999968  0.3333330000000032  0.5578899453046622   T   T   T
  0.6666669999999968  0.3333330000000032  0.7483485862855790   T   T   T
  0.0000000000000000  0.0000000000000000  0.3354555078440266   T   T   T
  0.0000000000000000  0.0000000000000000  0.5260816309924010   T   T   T
  0.0000000000000000  0.0000000000000000  0.7166486485524560   T   T   T
  0.6666669999999968  0.3333330000000032  0.2718500348750246   T   T   T
  0.6666669999999968  0.3333330000000032  0.4625287526382103   T   T   T
  0.6666669999999968  0.3333330000000032  0.6531607070300817   T   T   T
  0.3333330000000032  0.6666669999999968  0.3989756373593601   T   T   T
  0.3333330000000032  0.6666669999999968  0.5896280944712068   T   T   T
  0.3333330000000032  0.6666669999999968  0.7802134926385337   T   T   T
  0.0000000000000000  0.0000000000000000  0.0259613101577887   T   T   T
  0.0000000000000000  0.0000000000000000  0.1984032739110294   T   T   T
  0.6666669999999968  0.3333330000000032  0.1419268047534373   T   T   T
  0.3333330000000032  0.6666669999999968  0.0836895337866639   T   T   T
  0.0000000000000000  0.0000000000000000  0.8536190965463006   T   T   T
  0.6666669999999968  0.3333330000000032  0.9682399746231783   T   T   T
  0.3333330000000032  0.6666669999999968  0.9100406331795867   T   T   T
 
  0.00000000E+00  0.00000000E+00  0.00000000E+00
  0.00000000E+00  0.00000000E+00  0.00000000E+00
  0.00000000E+00  0.00000000E+00  0.00000000E+00
  0.00000000E+00  0.00000000E+00  0.00000000E+00
  0.00000000E+00  0.00000000E+00  0.00000000E+00
  0.00000000E+00  0.00000000E+00  0.00000000E+00
  0.00000000E+00  0.00000000E+00  0.00000000E+00
  0.00000000E+00  0.00000000E+00  0.00000000E+00
  0.00000000E+00  0.00000000E+00  0.00000000E+00
  0.00000000E+00  0.00000000E+00  0.00000000E+00
  0.00000000E+00  0.00000000E+00  0.00000000E+00
  0.00000000E+00  0.00000000E+00  0.00000000E+00
  0.00000000E+00  0.00000000E+00  0.00000000E+00
  0.00000000E+00  0.00000000E+00  0.00000000E+00
  0.00000000E+00  0.00000000E+00  0.00000000E+00
  0.00000000E+00  0.00000000E+00  0.00000000E+00
  0.00000000E+00  0.00000000E+00  0.00000000E+00
  0.00000000E+00  0.00000000E+00  0.00000000E+00
  0.00000000E+00  0.00000000E+00  0.00000000E+00
  0.00000000E+00  0.00000000E+00  0.00000000E+00
  0.00000000E+00  0.00000000E+00  0.00000000E+00
  0.00000000E+00  0.00000000E+00  0.00000000E+00
  0.00000000E+00  0.00000000E+00  0.00000000E+00
  0.00000000E+00  0.00000000E+00  0.00000000E+00
  0.00000000E+00  0.00000000E+00  0.00000000E+00
  0.00000000E+00  0.00000000E+00  0.00000000E+00
