K-Spacing Value to Generate K-Mesh: 0.020
0
Monkhorst-Pack
 24  24   24
0.0  0.0  0.0
