OT hollow                               
   1.00000000000000     
     2.5811541392653616   -1.5324138013876256    0.0027477723695831
    -0.0365325771383558    3.0015513008946511   -0.0027477716826384
     0.0222045901268964   -0.0384594709818474   40.9854984303654746
   O    Mg   Al
    10     9     7
Selective dynamics
Direct
  0.5073049491415066  0.4926950508327578  0.2480590100800962   T   T   T
  0.5067680847884856  0.4932319152106404  0.4333885032500205   T   T   T
  0.4932293192922730  0.5067706807086932  0.6186877228792870   T   T   T
  0.4926925136397619  0.5073074863898818  0.8040118436675671   T   T   T
  0.8490958975485393  0.1509041024483486  0.3096720822951869   T   T   T
  0.1777386498695871  0.8222613501295604  0.3715607190987774   T   T   T
  0.8356028364771612  0.1643971635232582  0.4951769017989324   T   T   T
  0.1643948431086652  0.8356051568909938  0.5569012684573895   T   T   T
  0.8222610115603719  0.1777389884409569  0.6805136072023800   T   T   T
  0.1508969487959178  0.8491030512087931  0.7423995814616271   T   T   T
  0.5133095121899030  0.4866904878164139  0.3406258175446396   T   T   T
  0.4999988011383819  0.5000011988616113  0.5260387657118737   T   T   T
  0.4866844176872477  0.5133155823071038  0.7114471092977317   T   T   T
  0.1857270518495143  0.8142729483261747  0.2787568917767256   T   T   T
  0.8423083714615284  0.1576916285321976  0.4024840369338260   T   T   T
  0.1711900534032319  0.8288099465964623  0.4642834700671137   T   T   T
  0.8288048353204902  0.1711951646797656  0.5877938780179452   T   T   T
  0.1576907944150684  0.8423092055908507  0.6495909327554300   T   T   T
  0.8142687677179212  0.1857312321031213  0.7733155317626733   T   T   T
  0.0000104521840718  0.9999895477826889  0.0260381476517542   T   T   T
  0.9900825886394413  0.0099174112187909  0.2116995791870418   T   T   T
  0.6878792630064039  0.3121207370193110  0.1514309123434354   T   T   T
  0.3282307294092888  0.6717692705867890  0.0875957171807246   T   T   T
  0.0099197326269249  0.9900802675070266  0.8403714712390975   T   T   T
  0.6717836032992357  0.3282163967401497  0.9644816255698480   T   T   T
  0.3121259714290919  0.6878740285476449  0.9006418727688865   T   T   T
 
  0.00000000E+00  0.00000000E+00  0.00000000E+00
  0.00000000E+00  0.00000000E+00  0.00000000E+00
  0.00000000E+00  0.00000000E+00  0.00000000E+00
  0.00000000E+00  0.00000000E+00  0.00000000E+00
  0.00000000E+00  0.00000000E+00  0.00000000E+00
  0.00000000E+00  0.00000000E+00  0.00000000E+00
  0.00000000E+00  0.00000000E+00  0.00000000E+00
  0.00000000E+00  0.00000000E+00  0.00000000E+00
  0.00000000E+00  0.00000000E+00  0.00000000E+00
  0.00000000E+00  0.00000000E+00  0.00000000E+00
  0.00000000E+00  0.00000000E+00  0.00000000E+00
  0.00000000E+00  0.00000000E+00  0.00000000E+00
  0.00000000E+00  0.00000000E+00  0.00000000E+00
  0.00000000E+00  0.00000000E+00  0.00000000E+00
  0.00000000E+00  0.00000000E+00  0.00000000E+00
  0.00000000E+00  0.00000000E+00  0.00000000E+00
  0.00000000E+00  0.00000000E+00  0.00000000E+00
  0.00000000E+00  0.00000000E+00  0.00000000E+00
  0.00000000E+00  0.00000000E+00  0.00000000E+00
  0.00000000E+00  0.00000000E+00  0.00000000E+00
  0.00000000E+00  0.00000000E+00  0.00000000E+00
  0.00000000E+00  0.00000000E+00  0.00000000E+00
  0.00000000E+00  0.00000000E+00  0.00000000E+00
  0.00000000E+00  0.00000000E+00  0.00000000E+00
  0.00000000E+00  0.00000000E+00  0.00000000E+00
  0.00000000E+00  0.00000000E+00  0.00000000E+00
