OT hollow                               
   1.00000000000000     
     2.5811541392653616   -1.5324138013876256    0.0027477723695831
    -0.0365325771383558    3.0015513008946511   -0.0027477716826384
0.0222045901268964 -0.0384594709818474 40.9854984303654772
   O    Mg   Al
    10     9     7
Selective dynamics
Direct
  0.5069404232405479  0.4930595767337159  0.2463338999992017   T   T   T
  0.5067973340781337  0.4932026659209925  0.4327274218208914   T   T   T
  0.4931932173485379  0.5068067826524287  0.6193430548326262   T   T   T
  0.4930683387359593  0.5069316612936846  0.8057460638946131   T   T   T
  0.8491422857653093  0.1508577142315786  0.3082488249430579   T   T   T
  0.1779474956581710  0.8220525043409763  0.3704750926716986   T   T   T
  0.8355831012266332  0.1644168987737860  0.4949309800464991   T   T   T
  0.1644050899309285  0.8355949100687305  0.5571382443634149   T   T   T
  0.8220486489342778  0.1779513510670511  0.6815970750579849   T   T   T
  0.1508498610752929  0.8491501389294179  0.7438275537327207   T   T   T
  0.5134844516384702  0.4865155483678464  0.3393689041536782   T   T   T
  0.4999980188624712  0.5000019811375217  0.5260345453817953   T   T   T
  0.4865121063074790  0.5134878936868723  0.7127063598552476   T   T   T
  0.1856124921625884  0.8143875080131003  0.2771829396833830   T   T   T
  0.8423586024354539  0.1576413975582721  0.4016006313890927   T   T   T
  0.1711218603791624  0.8288781396205321  0.4638345809894016   T   T   T
  0.8288712663037656  0.1711287336964899  0.5882342250583700   T   T   T
  0.1576383511836455  0.8423616488222734  0.6504717520153696   T   T   T
  0.8143865545056266  0.1856134453154160  0.7748943515241620   T   T   T
  0.0000140406964752  0.9999859592702854  0.0260373520511941   T   T   T
  0.9894299776691901  0.0105700221890425  0.2097345534444183   T   T   T
  0.6856007848088599  0.3143992152168547  0.1498837846276812   T   T   T
  0.3270491503816336  0.6729508496144443  0.0873028897482527   T   T   T
  0.0105699887658798  0.9894300113680716  0.8423457893684150   T   T   T
  0.6729738878605847  0.3270261121788008  0.9647732748576732   T   T   T
  0.3144026700449288  0.6855973299318081  0.9021928544891618   T   T   T
 
  0.00000000E+00  0.00000000E+00  0.00000000E+00
  0.00000000E+00  0.00000000E+00  0.00000000E+00
  0.00000000E+00  0.00000000E+00  0.00000000E+00
  0.00000000E+00  0.00000000E+00  0.00000000E+00
  0.00000000E+00  0.00000000E+00  0.00000000E+00
  0.00000000E+00  0.00000000E+00  0.00000000E+00
  0.00000000E+00  0.00000000E+00  0.00000000E+00
  0.00000000E+00  0.00000000E+00  0.00000000E+00
  0.00000000E+00  0.00000000E+00  0.00000000E+00
  0.00000000E+00  0.00000000E+00  0.00000000E+00
  0.00000000E+00  0.00000000E+00  0.00000000E+00
  0.00000000E+00  0.00000000E+00  0.00000000E+00
  0.00000000E+00  0.00000000E+00  0.00000000E+00
  0.00000000E+00  0.00000000E+00  0.00000000E+00
  0.00000000E+00  0.00000000E+00  0.00000000E+00
  0.00000000E+00  0.00000000E+00  0.00000000E+00
  0.00000000E+00  0.00000000E+00  0.00000000E+00
  0.00000000E+00  0.00000000E+00  0.00000000E+00
  0.00000000E+00  0.00000000E+00  0.00000000E+00
  0.00000000E+00  0.00000000E+00  0.00000000E+00
  0.00000000E+00  0.00000000E+00  0.00000000E+00
  0.00000000E+00  0.00000000E+00  0.00000000E+00
  0.00000000E+00  0.00000000E+00  0.00000000E+00
  0.00000000E+00  0.00000000E+00  0.00000000E+00
  0.00000000E+00  0.00000000E+00  0.00000000E+00
  0.00000000E+00  0.00000000E+00  0.00000000E+00
