Layer20 
1.0 
2.536369 -1.464373 0.000000 
0.000000 2.928746 0.000000 
-0.000000 0.000000 72.817586 
O Mg Al 
9 10 7 
Selective Dynamics
Direct 
0.500000 0.500000 0.492631 T T T 
0.500000 0.500000 0.598984 T T T 
0.500000 0.500000 0.705338 T T T 
0.166667 0.833333 0.457180 T T T 
0.833333 0.166667 0.528082 T T T 
0.166667 0.833333 0.563533 T T T 
0.833333 0.166667 0.634435 T T T 
0.166667 0.833333 0.669887 T T T 
0.833333 0.166667 0.740789 T T T 
0.500000 0.500000 0.439454 T T T 
0.500000 0.500000 0.545808 T T T 
0.500000 0.500000 0.652161 T T T 
0.500000 0.500000 0.758514 T T T 
0.833333 0.166667 0.474905 T T T 
0.166667 0.833333 0.510356 T T T 
0.833333 0.166667 0.581259 T T T 
0.166667 0.833333 0.616710 T T T 
0.833333 0.166667 0.687612 T T T 
0.166667 0.833333 0.723063 T T T 
0.000000 -0.000000 0.229829 T T T 
0.000000 -0.000000 0.320909 T T T 
0.000000 -0.000000 0.411988 T T T 
0.666667 0.333333 0.290549 T T T 
0.666667 0.333333 0.381628 T T T 
0.333333 0.666667 0.260189 T T T 
0.333333 0.666667 0.351268 T T T 
