Layer                                   
   1.00000000000000     
     2.5922013181189856   -1.4966076734688392    0.0000000000000000
     0.0000000000000000    2.9932153469376783    0.0000000000000000
-0.0000000000000002 0.0000000000000000 45.4144555425991198
   O    Mg   Al
    10    11     7
Selective dynamics
Direct
 -0.0000000000000000 -0.0000000000000000  0.2729480102600870   T   T   T
  0.3333330000000032  0.6666669999999968  0.3287780368373485   T   T   T
 -0.0000000000000000 -0.0000000000000000  0.4405182549688024   T   T   T
  0.3333330000000032  0.6666669999999968  0.4964121020079403   T   T   T
 -0.0000000000000000 -0.0000000000000000  0.6081292430277505   T   T   T
  0.3333330000000032  0.6666669999999968  0.6639913396286024   T   T   T
 -0.0000000000000000 -0.0000000000000000  0.7756856144875072   T   T   T
  0.6666669999999968  0.3333330000000032  0.3846511629200599   T   T   T
  0.6666669999999968  0.3333330000000032  0.5522400247377094   T   T   T
  0.6666669999999968  0.3333330000000032  0.7198574234177973   T   T   T
 -0.0000000000000000 -0.0000000000000000  0.3567307520067291   T   T   T
 -0.0000000000000000 -0.0000000000000000  0.5243252312410535   T   T   T
 -0.0000000000000000 -0.0000000000000000  0.6919086030330057   T   T   T
  0.6666669999999968  0.3333330000000032  0.3008705877108371   T   T   T
  0.6666669999999968  0.3333330000000032  0.4684720403570513   T   T   T
  0.6666669999999968  0.3333330000000032  0.6360504287931081   T   T   T
  0.6666669999999968  0.3333330000000032  0.8045630585791128   T   T   T
  0.3333330000000032  0.6666669999999968  0.2440689520486208   T   T   T
  0.3333330000000032  0.6666669999999968  0.4125969598335952   T   T   T
  0.3333330000000032  0.6666669999999968  0.5801788488976564   T   T   T
  0.3333330000000032  0.6666669999999968  0.7477644786742850   T   T   T
 -0.0000000000000000 -0.0000000000000000  0.0243195517605841   T   T   T
 -0.0000000000000000 -0.0000000000000000  0.1859782874502796   T   T   T
  0.6666669999999968  0.3333330000000032  0.1308514596328124   T   T   T
  0.3333330000000032  0.6666669999999968  0.0772618270239048   T   T   T
 -0.0000000000000000 -0.0000000000000000  0.8626557898114856   T   T   T
  0.6666669999999968  0.3333330000000032  0.9713770681161578   T   T   T
  0.3333330000000032  0.6666669999999968  0.9177858627361647   T   T   T
 
  0.00000000E+00  0.00000000E+00  0.00000000E+00
  0.00000000E+00  0.00000000E+00  0.00000000E+00
  0.00000000E+00  0.00000000E+00  0.00000000E+00
  0.00000000E+00  0.00000000E+00  0.00000000E+00
  0.00000000E+00  0.00000000E+00  0.00000000E+00
  0.00000000E+00  0.00000000E+00  0.00000000E+00
  0.00000000E+00  0.00000000E+00  0.00000000E+00
  0.00000000E+00  0.00000000E+00  0.00000000E+00
  0.00000000E+00  0.00000000E+00  0.00000000E+00
  0.00000000E+00  0.00000000E+00  0.00000000E+00
  0.00000000E+00  0.00000000E+00  0.00000000E+00
  0.00000000E+00  0.00000000E+00  0.00000000E+00
  0.00000000E+00  0.00000000E+00  0.00000000E+00
  0.00000000E+00  0.00000000E+00  0.00000000E+00
  0.00000000E+00  0.00000000E+00  0.00000000E+00
  0.00000000E+00  0.00000000E+00  0.00000000E+00
  0.00000000E+00  0.00000000E+00  0.00000000E+00
  0.00000000E+00  0.00000000E+00  0.00000000E+00
  0.00000000E+00  0.00000000E+00  0.00000000E+00
  0.00000000E+00  0.00000000E+00  0.00000000E+00
  0.00000000E+00  0.00000000E+00  0.00000000E+00
  0.00000000E+00  0.00000000E+00  0.00000000E+00
  0.00000000E+00  0.00000000E+00  0.00000000E+00
  0.00000000E+00  0.00000000E+00  0.00000000E+00
  0.00000000E+00  0.00000000E+00  0.00000000E+00
  0.00000000E+00  0.00000000E+00  0.00000000E+00
  0.00000000E+00  0.00000000E+00  0.00000000E+00
  0.00000000E+00  0.00000000E+00  0.00000000E+00
