Layer (20)                              
   1.00000000000000     
     2.5844879337095619   -1.4921433729288078    0.0000000000000000
     0.0000000000000000    2.9842867458576157    0.0000000000000001
     0.0000000000000031    0.0000000000000058   79.7630318285646354
   O    Mg   Al
     9    10     7
Selective dynamics
Direct
  0.9999999557087662  0.9999999839558313  0.4979076998254328   T   T   T
  0.3333331140773623  0.6666668348834364  0.5286768016469168   T   T   T
  0.9999999605926462  0.9999999871921688  0.5902055915096653   T   T   T
  0.3333331130027588  0.6666668357665344  0.6209940720880951   T   T   T
  0.9999999585891786  0.9999999886988675  0.6825855067573130   T   T   T
  0.3333330994488790  0.6666668630597172  0.7133481845961640   T   T   T
  0.6666667582604830  0.3333330637684995  0.4671325985946950   T   T   T
  0.6666668229311483  0.3333331265135158  0.5594341548998756   T   T   T
  0.6666668221334433  0.3333331249941978  0.6517866007443160   T   T   T
  0.9999999858763218  0.9999999427616331  0.4515810829142382   T   T   T
  0.0000000384826677  0.0000000122851418  0.5442033297801956   T   T   T
  0.0000000395483468  0.0000000128296733  0.6365300967583849   T   T   T
  0.0000001103086191  0.0000000892002276  0.7295284317257327   T   T   T
  0.6666668961367748  0.3333331545894396  0.5134482015297550   T   T   T
  0.6666668977478665  0.3333331543236966  0.6057412946279968   T   T   T
  0.6666669271755694  0.3333331736118907  0.6981255330557659   T   T   T
  0.3333331537491091  0.6666668750879978  0.4826796202638661   T   T   T
  0.3333331671117463  0.6666668833937663  0.5749641988760885   T   T   T
  0.3333331690551660  0.6666668862874232  0.6673227706841232   T   T   T
  0.9999999141312514  0.9999999694808679  0.2496644097480996   T   T   T
  0.0000001397804539  0.0000000703667453  0.3337180806058129   T   T   T
  0.0000000725522327  0.0000000202948769  0.4173114752687113   T   T   T
  0.6666668566821983  0.3333329788425914  0.3058740424900677   T   T   T
  0.6666670121157807  0.3333330554801321  0.3895945940408581   T   T   T
  0.3333330127521705  0.6666669617768193  0.2780199030730444   T   T   T
  0.3333330020490521  0.6666669505543084  0.3616227238947687   T   T   T
 
  0.00000000E+00  0.00000000E+00  0.00000000E+00
  0.00000000E+00  0.00000000E+00  0.00000000E+00
  0.00000000E+00  0.00000000E+00  0.00000000E+00
  0.00000000E+00  0.00000000E+00  0.00000000E+00
  0.00000000E+00  0.00000000E+00  0.00000000E+00
  0.00000000E+00  0.00000000E+00  0.00000000E+00
  0.00000000E+00  0.00000000E+00  0.00000000E+00
  0.00000000E+00  0.00000000E+00  0.00000000E+00
  0.00000000E+00  0.00000000E+00  0.00000000E+00
  0.00000000E+00  0.00000000E+00  0.00000000E+00
  0.00000000E+00  0.00000000E+00  0.00000000E+00
  0.00000000E+00  0.00000000E+00  0.00000000E+00
  0.00000000E+00  0.00000000E+00  0.00000000E+00
  0.00000000E+00  0.00000000E+00  0.00000000E+00
  0.00000000E+00  0.00000000E+00  0.00000000E+00
  0.00000000E+00  0.00000000E+00  0.00000000E+00
  0.00000000E+00  0.00000000E+00  0.00000000E+00
  0.00000000E+00  0.00000000E+00  0.00000000E+00
  0.00000000E+00  0.00000000E+00  0.00000000E+00
  0.00000000E+00  0.00000000E+00  0.00000000E+00
  0.00000000E+00  0.00000000E+00  0.00000000E+00
  0.00000000E+00  0.00000000E+00  0.00000000E+00
  0.00000000E+00  0.00000000E+00  0.00000000E+00
  0.00000000E+00  0.00000000E+00  0.00000000E+00
  0.00000000E+00  0.00000000E+00  0.00000000E+00
  0.00000000E+00  0.00000000E+00  0.00000000E+00
