Layer (20)                              
   1.00000000000000     
     2.5844879337095619   -1.4921433729288078    0.0000000000000000
     0.0000000000000000    2.9842867458576157    0.0000000000000001
     0.0000000000000031    0.0000000000000058   79.7630318285646354
   O    Mg   Al
     9    10     7
Selective dynamics
Direct
 -0.0000000442912349 -0.0000000160441687  0.4979076998254313   T   T   T
  0.3333331140773605  0.6666668348834343  0.5286768016469137   T   T   T
 -0.0000000394073546 -0.0000000128078282  0.5902055915096645   T   T   T
  0.3333331130027612  0.6666668357665363  0.6209940720880919   T   T   T
 -0.0000000414108241 -0.0000000113011354  0.6825855067573114   T   T   T
  0.3333330994488756  0.6666668630597198  0.7133481845961634   T   T   T
  0.6666667582604827  0.3333330637685026  0.4671325985946925   T   T   T
  0.6666668229311508  0.3333331265135124  0.5594341548998765   T   T   T
  0.6666668221334434  0.3333331249941980  0.6517866007443185   T   T   T
 -0.0000000141236765 -0.0000000572383663  0.4515810829142410   T   T   T
  0.0000000384826690  0.0000000122851417  0.5442033297801950   T   T   T
  0.0000000395483496  0.0000000128296759  0.6365300967583820   T   T   T
  0.0000001103086197  0.0000000892002277  0.7295284317257322   T   T   T
  0.6666668961367772  0.3333331545894372  0.5134482015297566   T   T   T
  0.6666668977478647  0.3333331543236977  0.6057412946279952   T   T   T
  0.6666669271755683  0.3333331736118914  0.6981255330557687   T   T   T
  0.3333331537491090  0.6666668750879959  0.4826796202638686   T   T   T
  0.3333331671117477  0.6666668833937645  0.5749641988760904   T   T   T
  0.3333331690551655  0.6666668862874227  0.6673227706841263   T   T   T
 -0.0000000858687460 -0.0000000305191310  0.2496644097480983   T   T   T
  0.0000001397804553  0.0000000703667423  0.3337180806058158   T   T   T
  0.0000000725522339  0.0000000202948786  0.4173114752687090   T   T   T
  0.6666668566821984  0.3333329788425911  0.3058740424900683   T   T   T
  0.6666670121157772  0.3333330554801341  0.3895945940408558   T   T   T
  0.3333330127521710  0.6666669617768191  0.2780199030730460   T   T   T
  0.3333330020490554  0.6666669505543064  0.3616227238947700   T   T   T
 
  0.00000000E+00  0.00000000E+00  0.00000000E+00
  0.00000000E+00  0.00000000E+00  0.00000000E+00
  0.00000000E+00  0.00000000E+00  0.00000000E+00
  0.00000000E+00  0.00000000E+00  0.00000000E+00
  0.00000000E+00  0.00000000E+00  0.00000000E+00
  0.00000000E+00  0.00000000E+00  0.00000000E+00
  0.00000000E+00  0.00000000E+00  0.00000000E+00
  0.00000000E+00  0.00000000E+00  0.00000000E+00
  0.00000000E+00  0.00000000E+00  0.00000000E+00
  0.00000000E+00  0.00000000E+00  0.00000000E+00
  0.00000000E+00  0.00000000E+00  0.00000000E+00
  0.00000000E+00  0.00000000E+00  0.00000000E+00
  0.00000000E+00  0.00000000E+00  0.00000000E+00
  0.00000000E+00  0.00000000E+00  0.00000000E+00
  0.00000000E+00  0.00000000E+00  0.00000000E+00
  0.00000000E+00  0.00000000E+00  0.00000000E+00
  0.00000000E+00  0.00000000E+00  0.00000000E+00
  0.00000000E+00  0.00000000E+00  0.00000000E+00
  0.00000000E+00  0.00000000E+00  0.00000000E+00
  0.00000000E+00  0.00000000E+00  0.00000000E+00
  0.00000000E+00  0.00000000E+00  0.00000000E+00
  0.00000000E+00  0.00000000E+00  0.00000000E+00
  0.00000000E+00  0.00000000E+00  0.00000000E+00
  0.00000000E+00  0.00000000E+00  0.00000000E+00
  0.00000000E+00  0.00000000E+00  0.00000000E+00
  0.00000000E+00  0.00000000E+00  0.00000000E+00
