OT hollow                               
   1.00000000000000     
     2.5811541392653616   -1.5324138013876256    0.0027477723695831
    -0.0365325771383558    3.0015513008946511   -0.0027477716826384
0.0222045901268964 -0.0384594709818474 39.4533302647443379
   O    Mg   Al
    10     9     7
Selective dynamics
Direct
  0.5035275588560784  0.4964724411181861  0.2394725841293592   T   T   T
  0.5053532317749029  0.4946467682242237  0.4304126535905373   T   T   T
  0.4945980094880924  0.5054019905128735  0.6216565090450534   T   T   T
  0.4964411269271718  0.5035588731024717  0.8126061312768859   T   T   T
  0.8462004148584784  0.1537995851384095  0.3029777600794284   T   T   T
  0.1756856937069210  0.8243143062922262  0.3666922865837767   T   T   T
  0.8350813791065529  0.1649186208938665  0.4941650685287007   T   T   T
  0.1648450915349358  0.8351549084647230  0.5578999053780396   T   T   T
  0.8243004064562470  0.1756995935450818  0.6853794974921149   T   T   T
  0.1538118451515940  0.8461881548531167  0.7491014389599917   T   T   T
  0.5109673514474806  0.4890326485588359  0.3348515235280416   T   T   T
  0.4999941986743516  0.5000058013256412  0.5260445355645497   T   T   T
  0.4890010492862215  0.5109989507081297  0.7172251962558037   T   T   T
  0.1824473560750861  0.8175526441005955  0.2711106957592546   T   T   T
  0.8405793995786534  0.1594206004150723  0.3985565642322152   T   T   T
  0.1702309378942742  0.8297690621054201  0.4623002750451681   T   T   T
  0.8297547525570529  0.1702452474432028  0.5897865538273623   T   T   T
  0.1594068746306249  0.8405931253752937  0.6535246141388037   T   T   T
  0.8175663932318362  0.1824336065892062  0.7809491820926866   T   T   T
  0.0000477424332100  0.9999522575335510  0.0260362015967719   T   T   T
  0.9881236459977691  0.0118763538604635  0.2019056695784680   T   T   T
  0.6765466337232369  0.3234533663024772  0.1444542741265187   T   T   T
  0.3303945164774026  0.6696054835186755  0.0850566469292677   T   T   T
  0.0118991600595551  0.9881008400743965  0.8501658142565607   T   T   T
  0.6696862510752417  0.3303137489641368  0.9670130050387676   T   T   T
  0.3235089789970148  0.6764910209797218  0.9076224129658915   T   T   T
 
  0.00000000E+00  0.00000000E+00  0.00000000E+00
  0.00000000E+00  0.00000000E+00  0.00000000E+00
  0.00000000E+00  0.00000000E+00  0.00000000E+00
  0.00000000E+00  0.00000000E+00  0.00000000E+00
  0.00000000E+00  0.00000000E+00  0.00000000E+00
  0.00000000E+00  0.00000000E+00  0.00000000E+00
  0.00000000E+00  0.00000000E+00  0.00000000E+00
  0.00000000E+00  0.00000000E+00  0.00000000E+00
  0.00000000E+00  0.00000000E+00  0.00000000E+00
  0.00000000E+00  0.00000000E+00  0.00000000E+00
  0.00000000E+00  0.00000000E+00  0.00000000E+00
  0.00000000E+00  0.00000000E+00  0.00000000E+00
  0.00000000E+00  0.00000000E+00  0.00000000E+00
  0.00000000E+00  0.00000000E+00  0.00000000E+00
  0.00000000E+00  0.00000000E+00  0.00000000E+00
  0.00000000E+00  0.00000000E+00  0.00000000E+00
  0.00000000E+00  0.00000000E+00  0.00000000E+00
  0.00000000E+00  0.00000000E+00  0.00000000E+00
  0.00000000E+00  0.00000000E+00  0.00000000E+00
  0.00000000E+00  0.00000000E+00  0.00000000E+00
  0.00000000E+00  0.00000000E+00  0.00000000E+00
  0.00000000E+00  0.00000000E+00  0.00000000E+00
  0.00000000E+00  0.00000000E+00  0.00000000E+00
  0.00000000E+00  0.00000000E+00  0.00000000E+00
  0.00000000E+00  0.00000000E+00  0.00000000E+00
  0.00000000E+00  0.00000000E+00  0.00000000E+00
