Layer                                   
   1.00000000000000     
     2.5753034101725314   -1.4868516770802194    0.0000000000000000
     0.0000000000000000    2.9737033541604387    0.0000000000000000
    -0.0000000000000009    0.0000000000000000   45.7088519425272466
   O    Mg   Al
    11    10     7
Selective dynamics
Direct
  0.3333330000000032  0.6666669999999968  0.2530842800803170   T   T   T
  0.0000000000000000  0.0000000000000000  0.3620752345202513   T   T   T
  0.3333330000000032  0.6666669999999968  0.4162091585696459   T   T   T
 -0.0000000000000000  0.0000000000000000  0.5245411868195120   T   T   T
  0.3333330000000032  0.6666669999999968  0.5787373940384727   T   T   T
  0.0000000000000000 -0.0000000000000000  0.6870030285379267   T   T   T
  0.3333330000000032  0.6666669999999968  0.7411543968051565   T   T   T
  0.6666669999999968  0.3333330000000032  0.3079263621299486   T   T   T
  0.6666669999999968  0.3333330000000032  0.4703449301252612   T   T   T
  0.6666669999999968  0.3333330000000032  0.6328716087532673   T   T   T
  0.6666669999999968  0.3333330000000032  0.7959969892414648   T   T   T
  0.0000000000000000  0.0000000000000000  0.2809088135435200   T   T   T
  0.0000000000000000  0.0000000000000000  0.4432930599634727   T   T   T
 -0.0000000000000000  0.0000000000000000  0.6057883582217232   T   T   T
  0.0000000000000000  0.0000000000000000  0.7681725061988223   T   T   T
  0.6666669999999968  0.3333330000000032  0.3891538501902854   T   T   T
  0.6666669999999968  0.3333330000000032  0.5516359892103327   T   T   T
  0.6666669999999968  0.3333330000000032  0.7140590961071819   T   T   T
  0.3333330000000032  0.6666669999999968  0.3350268319943370   T   T   T
  0.3333330000000032  0.6666669999999968  0.4974441152931205   T   T   T
  0.3333330000000032  0.6666669999999968  0.6599316604747377   T   T   T
  0.0000000000000000  0.0000000000000000  0.0245422583034411   T   T   T
 -0.0000000000000000  0.0000000000000000  0.2209148562386731   T   T   T
  0.6666669999999968  0.3333330000000032  0.1728848959812247   T   T   T
  0.3333330000000032  0.6666669999999968  0.0752327466354431   T   T   T
  0.0000000000000000  0.0000000000000000  0.8281688840872038   T   T   T
  0.6666669999999968  0.3333330000000032  0.9738499750933372   T   T   T
  0.3333330000000032  0.6666669999999968  0.8761985328419418   T   T   T
 
  0.00000000E+00  0.00000000E+00  0.00000000E+00
  0.00000000E+00  0.00000000E+00  0.00000000E+00
  0.00000000E+00  0.00000000E+00  0.00000000E+00
  0.00000000E+00  0.00000000E+00  0.00000000E+00
  0.00000000E+00  0.00000000E+00  0.00000000E+00
  0.00000000E+00  0.00000000E+00  0.00000000E+00
  0.00000000E+00  0.00000000E+00  0.00000000E+00
  0.00000000E+00  0.00000000E+00  0.00000000E+00
  0.00000000E+00  0.00000000E+00  0.00000000E+00
  0.00000000E+00  0.00000000E+00  0.00000000E+00
  0.00000000E+00  0.00000000E+00  0.00000000E+00
  0.00000000E+00  0.00000000E+00  0.00000000E+00
  0.00000000E+00  0.00000000E+00  0.00000000E+00
  0.00000000E+00  0.00000000E+00  0.00000000E+00
  0.00000000E+00  0.00000000E+00  0.00000000E+00
  0.00000000E+00  0.00000000E+00  0.00000000E+00
  0.00000000E+00  0.00000000E+00  0.00000000E+00
  0.00000000E+00  0.00000000E+00  0.00000000E+00
  0.00000000E+00  0.00000000E+00  0.00000000E+00
  0.00000000E+00  0.00000000E+00  0.00000000E+00
  0.00000000E+00  0.00000000E+00  0.00000000E+00
  0.00000000E+00  0.00000000E+00  0.00000000E+00
  0.00000000E+00  0.00000000E+00  0.00000000E+00
  0.00000000E+00  0.00000000E+00  0.00000000E+00
  0.00000000E+00  0.00000000E+00  0.00000000E+00
  0.00000000E+00  0.00000000E+00  0.00000000E+00
  0.00000000E+00  0.00000000E+00  0.00000000E+00
  0.00000000E+00  0.00000000E+00  0.00000000E+00
