MgO13                                   
   1.00000000000000     
     2.1244360000000002   -2.1244350000000001    0.0000000000000000
     0.0000000000000000    2.1244360000000002   -2.1244360000000002
    17.1579960000000007   17.1579960000000007   17.1579960000000007
   O    Mg
     7     6
Selective dynamics
Direct
 -0.0000000000000000 -0.0000000000000000  0.0320346882711137   T   T   T
  0.3333330000000032  0.6666669999999968  0.1161374567639257   T   T   T
  0.0000000000000000  0.0000000000000000  0.2812809999999999   F   F   F
  0.3333330000000032  0.6666669999999968  0.3638249999999985   F   F   F
  0.0000000000000000  0.0000000000000000  0.5289130000000029   F   F   F
  0.6666669999999968  0.3333330000000032  0.1986593991613770   T   T   T
  0.6666669999999968  0.3333330000000032  0.4463689999999971   F   F   F
  0.0000000000000000 -0.0000000000000000  0.1575209611438101   T   T   T
  0.0000000000000000  0.0000000000000000  0.4050969999999978   F   F   F
  0.6666669999999968  0.3333330000000032  0.0751505376010058   T   T   T
  0.6666669999999968  0.3333330000000032  0.3225529999999992   F   F   F
  0.3333330000000032  0.6666669999999968  0.2400090000000006   F   F   F
  0.3333330000000032  0.6666669999999968  0.4876409999999964   F   F   F
 
  0.00000000E+00  0.00000000E+00  0.00000000E+00
  0.00000000E+00  0.00000000E+00  0.00000000E+00
  0.00000000E+00  0.00000000E+00  0.00000000E+00
  0.00000000E+00  0.00000000E+00  0.00000000E+00
  0.00000000E+00  0.00000000E+00  0.00000000E+00
  0.00000000E+00  0.00000000E+00  0.00000000E+00
  0.00000000E+00  0.00000000E+00  0.00000000E+00
  0.00000000E+00  0.00000000E+00  0.00000000E+00
  0.00000000E+00  0.00000000E+00  0.00000000E+00
  0.00000000E+00  0.00000000E+00  0.00000000E+00
  0.00000000E+00  0.00000000E+00  0.00000000E+00
  0.00000000E+00  0.00000000E+00  0.00000000E+00
  0.00000000E+00  0.00000000E+00  0.00000000E+00
