Layer                                   
   1.00000000000000     
     2.5919820456764819   -1.4964810761798768    0.0000000000000000
     0.0000000000000001    2.9929621523597536    0.0000000000000000
     0.0000000000000000   -0.0000000000000001   42.2351513923564639
   O    Mg   Al
     9    10     7
Selective dynamics
Direct
 -0.0000000000000000  0.0000000000000000  0.3488418687552379   T   T   T
  0.3333330000000032  0.6666669999999968  0.4078145643410654   T   T   T
 -0.0000000000000000  0.0000000000000000  0.5257541086505593   T   T   T
  0.3333330000000032  0.6666669999999968  0.5847086056626366   T   T   T
 -0.0000000000000000  0.0000000000000000  0.7027655884541629   T   T   T
  0.3333330000000032  0.6666669999999968  0.7617784222861675   T   T   T
  0.6666669999999968  0.3333330000000032  0.2898598556961914   T   T   T
  0.6666669999999968  0.3333330000000032  0.4668143134407417   T   T   T
  0.6666669999999968  0.3333330000000032  0.6437452276719159   T   T   T
 -0.0000000000000000  0.0000000000000000  0.2595952980963274   T   T   T
 -0.0000000000000000  0.0000000000000000  0.4373136797769383   T   T   T
 -0.0000000000000000  0.0000000000000000  0.6142406920951476   T   T   T
 -0.0000000000000000  0.0000000000000000  0.7920313348192460   T   T   T
  0.6666669999999968  0.3333330000000032  0.3783311180840326   T   T   T
  0.6666669999999968  0.3333330000000032  0.5552400564852922   T   T   T
  0.6666669999999968  0.3333330000000032  0.7322460083438715   T   T   T
  0.3333330000000032  0.6666669999999968  0.3193560120969654   T   T   T
  0.3333330000000032  0.6666669999999968  0.4962959008343555   T   T   T
  0.3333330000000032  0.6666669999999968  0.6732518563338682   T   T   T
 -0.0000000000000000  0.0000000000000000  0.0257729424941965   T   T   T
 -0.0000000000000000  0.0000000000000000  0.1912005557544108   T   T   T
  0.6666669999999968  0.3333330000000032  0.1356757704723947   T   T   T
  0.3333330000000032  0.6666669999999968  0.0804985586190671   T   T   T
 -0.0000000000000000  0.0000000000000000  0.8604235082600262   T   T   T
  0.6666669999999968  0.3333330000000032  0.9710529657091489   T   T   T
  0.3333330000000032  0.6666669999999968  0.9159061867660340   T   T   T
 
  0.00000000E+00  0.00000000E+00  0.00000000E+00
  0.00000000E+00  0.00000000E+00  0.00000000E+00
  0.00000000E+00  0.00000000E+00  0.00000000E+00
  0.00000000E+00  0.00000000E+00  0.00000000E+00
  0.00000000E+00  0.00000000E+00  0.00000000E+00
  0.00000000E+00  0.00000000E+00  0.00000000E+00
  0.00000000E+00  0.00000000E+00  0.00000000E+00
  0.00000000E+00  0.00000000E+00  0.00000000E+00
  0.00000000E+00  0.00000000E+00  0.00000000E+00
  0.00000000E+00  0.00000000E+00  0.00000000E+00
  0.00000000E+00  0.00000000E+00  0.00000000E+00
  0.00000000E+00  0.00000000E+00  0.00000000E+00
  0.00000000E+00  0.00000000E+00  0.00000000E+00
  0.00000000E+00  0.00000000E+00  0.00000000E+00
  0.00000000E+00  0.00000000E+00  0.00000000E+00
  0.00000000E+00  0.00000000E+00  0.00000000E+00
  0.00000000E+00  0.00000000E+00  0.00000000E+00
  0.00000000E+00  0.00000000E+00  0.00000000E+00
  0.00000000E+00  0.00000000E+00  0.00000000E+00
  0.00000000E+00  0.00000000E+00  0.00000000E+00
  0.00000000E+00  0.00000000E+00  0.00000000E+00
  0.00000000E+00  0.00000000E+00  0.00000000E+00
  0.00000000E+00  0.00000000E+00  0.00000000E+00
  0.00000000E+00  0.00000000E+00  0.00000000E+00
  0.00000000E+00  0.00000000E+00  0.00000000E+00
  0.00000000E+00  0.00000000E+00  0.00000000E+00
