Layer                                   
   1.00000000000000     
     2.5919820456764819   -1.4964810761798768    0.0000000000000000
     0.0000000000000001    2.9929621523597536    0.0000000000000000
0.0000000000000000 -0.0000000000000001 42.2351513923564634
   O    Mg   Al
     9    10     7
Selective dynamics
Direct
  0.0000000000000000 -0.0000000000000000  0.3472959193066700   T   T   T
  0.3333330000000032  0.6666669999999968  0.4068266374221575   T   T   T
  0.0000000000000000 -0.0000000000000000  0.5258181632637716   T   T   T
  0.3333330000000032  0.6666669999999968  0.5852745281561171   T   T   T
  0.0000000000000000 -0.0000000000000000  0.7042284870792969   T   T   T
  0.3333330000000032  0.6666669999999968  0.7637354294517331   T   T   T
  0.6666669999999968  0.3333330000000032  0.2877612402128957   T   T   T
  0.6666669999999968  0.3333330000000032  0.4663508689672852   T   T   T
  0.6666669999999968  0.3333330000000032  0.6447568271428794   T   T   T
  0.0000000000000000 -0.0000000000000000  0.2572958399545891   T   T   T
  0.0000000000000000 -0.0000000000000000  0.4365857025582866   T   T   T
  0.0000000000000000 -0.0000000000000000  0.6150120038625284   T   T   T
  0.0000000000000000 -0.0000000000000000  0.7941999150309318   T   T   T
  0.6666669999999968  0.3333330000000032  0.3770780830403745   T   T   T
  0.6666669999999968  0.3333330000000032  0.5555407130537601   T   T   T
  0.6666669999999968  0.3333330000000032  0.7339522012671895   T   T   T
  0.3333330000000032  0.6666669999999968  0.3175652248862603   T   T   T
  0.3333330000000032  0.6666669999999968  0.4960910558797904   T   T   T
  0.3333330000000032  0.6666669999999968  0.6744838245989393   T   T   T
  0.0000000000000000 -0.0000000000000000  0.0258372644009407   T   T   T
  0.0000000000000000 -0.0000000000000000  0.1899097554007819   T   T   T
  0.6666669999999968  0.3333330000000032  0.1351720271253609   T   T   T
  0.3333330000000032  0.6666669999999968  0.0802689782799625   T   T   T
  0.0000000000000000 -0.0000000000000000  0.8616424410016856   T   T   T
  0.6666669999999968  0.3333330000000032  0.9713871758289423   T   T   T
  0.3333330000000032  0.6666669999999968  0.9164446928268788   T   T   T
 
  0.00000000E+00  0.00000000E+00  0.00000000E+00
  0.00000000E+00  0.00000000E+00  0.00000000E+00
  0.00000000E+00  0.00000000E+00  0.00000000E+00
  0.00000000E+00  0.00000000E+00  0.00000000E+00
  0.00000000E+00  0.00000000E+00  0.00000000E+00
  0.00000000E+00  0.00000000E+00  0.00000000E+00
  0.00000000E+00  0.00000000E+00  0.00000000E+00
  0.00000000E+00  0.00000000E+00  0.00000000E+00
  0.00000000E+00  0.00000000E+00  0.00000000E+00
  0.00000000E+00  0.00000000E+00  0.00000000E+00
  0.00000000E+00  0.00000000E+00  0.00000000E+00
  0.00000000E+00  0.00000000E+00  0.00000000E+00
  0.00000000E+00  0.00000000E+00  0.00000000E+00
  0.00000000E+00  0.00000000E+00  0.00000000E+00
  0.00000000E+00  0.00000000E+00  0.00000000E+00
  0.00000000E+00  0.00000000E+00  0.00000000E+00
  0.00000000E+00  0.00000000E+00  0.00000000E+00
  0.00000000E+00  0.00000000E+00  0.00000000E+00
  0.00000000E+00  0.00000000E+00  0.00000000E+00
  0.00000000E+00  0.00000000E+00  0.00000000E+00
  0.00000000E+00  0.00000000E+00  0.00000000E+00
  0.00000000E+00  0.00000000E+00  0.00000000E+00
  0.00000000E+00  0.00000000E+00  0.00000000E+00
  0.00000000E+00  0.00000000E+00  0.00000000E+00
  0.00000000E+00  0.00000000E+00  0.00000000E+00
  0.00000000E+00  0.00000000E+00  0.00000000E+00
