Layer                                   
   1.00000000000000     
     2.6004576726853683   -1.5013744842201957    0.0000000000000000
     0.0000000000000000    3.0027489684403914    0.0000000000000000
     0.0000000000000007   -0.0000000000000001   39.6988434586156913
   O    Mg   Al
    10     9     7
Selective dynamics
Direct
 -0.0000000000000000 -0.0000000000000000  0.2459290852213801   T   T   T
  0.3333330000000032  0.6666669999999968  0.3062268160735629   T   T   T
  0.0000000000000000 -0.0000000000000000  0.4318011923665173   T   T   T
  0.3333330000000032  0.6666669999999968  0.4946206663964547   T   T   T
  0.0000000000000000 -0.0000000000000000  0.6202647021163740   T   T   T
  0.3333330000000032  0.6666669999999968  0.6830427077283997   T   T   T
  0.0000000000000000 -0.0000000000000000  0.8061576122755911   T   T   T
  0.6666669999999968  0.3333330000000032  0.3690331126038270   T   T   T
  0.6666669999999968  0.3333330000000032  0.5574392737231891   T   T   T
  0.6666669999999968  0.3333330000000032  0.7458595737534855   T   T   T
  0.0000000000000000 -0.0000000000000000  0.3376305141878616   T   T   T
  0.0000000000000000 -0.0000000000000000  0.5260463936701412   T   T   T
  0.0000000000000000 -0.0000000000000000  0.7144395173937929   T   T   T
  0.6666669999999968  0.3333330000000032  0.2747539834127587   T   T   T
  0.6666669999999968  0.3333330000000032  0.4632211184027553   T   T   T
  0.6666669999999968  0.3333330000000032  0.6516556397020051   T   T   T
  0.3333330000000032  0.6666669999999968  0.4004271805974430   T   T   T
  0.3333330000000032  0.6666669999999968  0.5888670448599054   T   T   T
  0.3333330000000032  0.6666669999999968  0.7773080039263779   T   T   T
  0.0000000000000000 -0.0000000000000000  0.0260333540913338   T   T   T
  0.0000000000000000 -0.0000000000000000  0.2023150467100406   T   T   T
  0.6666669999999968  0.3333330000000032  0.1445829726394091   T   T   T
  0.3333330000000032  0.6666669999999968  0.0848988017353120   T   T   T
  0.0000000000000000 -0.0000000000000000  0.8497579759805152   T   T   T
  0.6666669999999968  0.3333330000000032  0.9671677667458947   T   T   T
  0.3333330000000032  0.6666669999999968  0.9074869436856774   T   T   T
 
  0.00000000E+00  0.00000000E+00  0.00000000E+00
  0.00000000E+00  0.00000000E+00  0.00000000E+00
  0.00000000E+00  0.00000000E+00  0.00000000E+00
  0.00000000E+00  0.00000000E+00  0.00000000E+00
  0.00000000E+00  0.00000000E+00  0.00000000E+00
  0.00000000E+00  0.00000000E+00  0.00000000E+00
  0.00000000E+00  0.00000000E+00  0.00000000E+00
  0.00000000E+00  0.00000000E+00  0.00000000E+00
  0.00000000E+00  0.00000000E+00  0.00000000E+00
  0.00000000E+00  0.00000000E+00  0.00000000E+00
  0.00000000E+00  0.00000000E+00  0.00000000E+00
  0.00000000E+00  0.00000000E+00  0.00000000E+00
  0.00000000E+00  0.00000000E+00  0.00000000E+00
  0.00000000E+00  0.00000000E+00  0.00000000E+00
  0.00000000E+00  0.00000000E+00  0.00000000E+00
  0.00000000E+00  0.00000000E+00  0.00000000E+00
  0.00000000E+00  0.00000000E+00  0.00000000E+00
  0.00000000E+00  0.00000000E+00  0.00000000E+00
  0.00000000E+00  0.00000000E+00  0.00000000E+00
  0.00000000E+00  0.00000000E+00  0.00000000E+00
  0.00000000E+00  0.00000000E+00  0.00000000E+00
  0.00000000E+00  0.00000000E+00  0.00000000E+00
  0.00000000E+00  0.00000000E+00  0.00000000E+00
  0.00000000E+00  0.00000000E+00  0.00000000E+00
  0.00000000E+00  0.00000000E+00  0.00000000E+00
  0.00000000E+00  0.00000000E+00  0.00000000E+00
