Layer20                                 
   1.00000000000000     
     2.5829450305551194   -1.4915994750886601    0.0326812596633896
    -0.0002947304119171    2.9826884607492659   -0.0326812167338692
     0.4549586670592201   -0.7880080400697314   70.2268749128016481
   Al
     7
Selective dynamics
Direct
  0.0132014124162154  0.9867985806124224  0.2197115512233339   T   T   T
  0.9671267581066800  0.0328732581749094  0.3151477992614247   T   T   T
  0.9135660161817114  0.0864340072334926  0.4100024336594998   T   T   T
  0.6521958742549927  0.3478041322482071  0.2835085139641080   T   T   T
  0.5952087589281092  0.4047912698098557  0.3787379643443600   T   T   T
  0.3344029562307682  0.6655970430138396  0.2518365680635242   T   T   T
  0.2796276314299959  0.7203723936495052  0.3469548574269155   T   T   T
 
  0.00000000E+00  0.00000000E+00  0.00000000E+00
  0.00000000E+00  0.00000000E+00  0.00000000E+00
  0.00000000E+00  0.00000000E+00  0.00000000E+00
  0.00000000E+00  0.00000000E+00  0.00000000E+00
  0.00000000E+00  0.00000000E+00  0.00000000E+00
  0.00000000E+00  0.00000000E+00  0.00000000E+00
  0.00000000E+00  0.00000000E+00  0.00000000E+00
