Layer20                                 
   1.00000000000000     
     2.5829450305551194   -1.4915994750886601    0.0326812596633896
    -0.0002947304119171    2.9826884607492659   -0.0326812167338692
     0.4549586670592201   -0.7880080400697314   70.2268749128016481
     Al
        7
Selective dynamics
Direct
    0.0132014124162187 -0.0132014193875769  0.2197115512233332   T   T   T
 -0.0328732418933198  0.0328732581749120  0.3151477992614256   T   T   T
 -0.0864339838182882  0.0864340072334959  0.4100024336595018   T   T   T
  0.6521958742549914  0.3478041322482038  0.2835085139641055   T   T   T
  0.5952087589281057  0.4047912698098580  0.3787379643443631   T   T   T
  0.3344029562307685  0.6655970430138399  0.2518365680635215   T   T   T
  0.2796276314299926  0.7203723936495066  0.3469548574269141   T   T   T
 
  0.00000000E+00  0.00000000E+00  0.00000000E+00
  0.00000000E+00  0.00000000E+00  0.00000000E+00
  0.00000000E+00  0.00000000E+00  0.00000000E+00
  0.00000000E+00  0.00000000E+00  0.00000000E+00
  0.00000000E+00  0.00000000E+00  0.00000000E+00
  0.00000000E+00  0.00000000E+00  0.00000000E+00
  0.00000000E+00  0.00000000E+00  0.00000000E+00
  0.00000000E+00  0.00000000E+00  0.00000000E+00
  0.00000000E+00  0.00000000E+00  0.00000000E+00
  0.00000000E+00  0.00000000E+00  0.00000000E+00
  0.00000000E+00  0.00000000E+00  0.00000000E+00
  0.00000000E+00  0.00000000E+00  0.00000000E+00
  0.00000000E+00  0.00000000E+00  0.00000000E+00
  0.00000000E+00  0.00000000E+00  0.00000000E+00
  0.00000000E+00  0.00000000E+00  0.00000000E+00
  0.00000000E+00  0.00000000E+00  0.00000000E+00
  0.00000000E+00  0.00000000E+00  0.00000000E+00
  0.00000000E+00  0.00000000E+00  0.00000000E+00
  0.00000000E+00  0.00000000E+00  0.00000000E+00
  0.00000000E+00  0.00000000E+00  0.00000000E+00
  0.00000000E+00  0.00000000E+00  0.00000000E+00
  0.00000000E+00  0.00000000E+00  0.00000000E+00
  0.00000000E+00  0.00000000E+00  0.00000000E+00
  0.00000000E+00  0.00000000E+00  0.00000000E+00
  0.00000000E+00  0.00000000E+00  0.00000000E+00
  0.00000000E+00  0.00000000E+00  0.00000000E+00
