Layer                                   
   1.00000000000000     
     2.6004576726853683   -1.5013744842201957    0.0000000000000000
     0.0000000000000000    3.0027489684403914    0.0000000000000000
0.0000000000000007 -0.0000000000000001 41.2405461172027114
   O    Mg   Al
    10     9     7
Selective dynamics
Direct
 -0.0000000000000000 -0.0000000000000000  0.2498468885259851   T   T   T
  0.3333330000000032  0.6666669999999968  0.3094111076180471   T   T   T
 -0.0000000000000000 -0.0000000000000000  0.4332213611743635   T   T   T
  0.3333330000000032  0.6666669999999968  0.4950881282794588   T   T   T
 -0.0000000000000000 -0.0000000000000000  0.6188555713477276   T   T   T
  0.3333330000000032  0.6666669999999968  0.6807395627866955   T   T   T
 -0.0000000000000000 -0.0000000000000000  0.8022350689218724   T   T   T
  0.6666669999999968  0.3333330000000032  0.3713384605614588   T   T   T
  0.6666669999999968  0.3333330000000032  0.5569905927221008   T   T   T
  0.6666669999999968  0.3333330000000032  0.7426677203151417   T   T   T
 -0.0000000000000000 -0.0000000000000000  0.3403262965708749   T   T   T
 -0.0000000000000000 -0.0000000000000000  0.5260338956857612   T   T   T
 -0.0000000000000000 -0.0000000000000000  0.7117489405147261   T   T   T
  0.6666669999999968  0.3333330000000032  0.2783395221189842   T   T   T
  0.6666669999999968  0.3333330000000032  0.4641346013341961   T   T   T
  0.6666669999999968  0.3333330000000032  0.6498239990420214   T   T   T
  0.3333330000000032  0.6666669999999968  0.4022460691957246   T   T   T
  0.3333330000000032  0.6666669999999968  0.5879357449280612   T   T   T
  0.3333330000000032  0.6666669999999968  0.7737322108471379   T   T   T
 -0.0000000000000000 -0.0000000000000000  0.0260364432945213   T   T   T
 -0.0000000000000000 -0.0000000000000000  0.2072091686280943   T   T   T
  0.6666669999999968  0.3333330000000032  0.1479772494897757   T   T   T
  0.3333330000000032  0.6666669999999968  0.0864835463419857   T   T   T
 -0.0000000000000000 -0.0000000000000000  0.8448603772557314   T   T   T
  0.6666669999999968  0.3333330000000032  0.9655879007830085   T   T   T
  0.3333330000000032  0.6666669999999968  0.9040965717165323   T   T   T
 
  0.00000000E+00  0.00000000E+00  0.00000000E+00
  0.00000000E+00  0.00000000E+00  0.00000000E+00
  0.00000000E+00  0.00000000E+00  0.00000000E+00
  0.00000000E+00  0.00000000E+00  0.00000000E+00
  0.00000000E+00  0.00000000E+00  0.00000000E+00
  0.00000000E+00  0.00000000E+00  0.00000000E+00
  0.00000000E+00  0.00000000E+00  0.00000000E+00
  0.00000000E+00  0.00000000E+00  0.00000000E+00
  0.00000000E+00  0.00000000E+00  0.00000000E+00
  0.00000000E+00  0.00000000E+00  0.00000000E+00
  0.00000000E+00  0.00000000E+00  0.00000000E+00
  0.00000000E+00  0.00000000E+00  0.00000000E+00
  0.00000000E+00  0.00000000E+00  0.00000000E+00
  0.00000000E+00  0.00000000E+00  0.00000000E+00
  0.00000000E+00  0.00000000E+00  0.00000000E+00
  0.00000000E+00  0.00000000E+00  0.00000000E+00
  0.00000000E+00  0.00000000E+00  0.00000000E+00
  0.00000000E+00  0.00000000E+00  0.00000000E+00
  0.00000000E+00  0.00000000E+00  0.00000000E+00
  0.00000000E+00  0.00000000E+00  0.00000000E+00
  0.00000000E+00  0.00000000E+00  0.00000000E+00
  0.00000000E+00  0.00000000E+00  0.00000000E+00
  0.00000000E+00  0.00000000E+00  0.00000000E+00
  0.00000000E+00  0.00000000E+00  0.00000000E+00
  0.00000000E+00  0.00000000E+00  0.00000000E+00
  0.00000000E+00  0.00000000E+00  0.00000000E+00
