Layer                                   
   1.00000000000000     
     2.6004576726853683   -1.5013744842201957    0.0000000000000000
     0.0000000000000000    3.0027489684403914    0.0000000000000000
     0.0000000000000007   -0.0000000000000001   44.3239514343767453
   O    Mg   Al
    10     9     7
Selective dynamics
Direct
 -0.0000000000000000  0.0000000000000000  0.2779406858615722   T   T   T
  0.3333330000000032  0.6666669999999968  0.3312947573472201   T   T   T
  0.0000000000000000  0.0000000000000000  0.4424677999142420   T   T   T
  0.3333330000000032  0.6666669999999968  0.4980890973290703   T   T   T
  0.0000000000000000  0.0000000000000000  0.6093210030547073   T   T   T
  0.3333330000000032  0.6666669999999968  0.6649245789611949   T   T   T
  0.0000000000000000  0.0000000000000000  0.7738106083984998   T   T   T
  0.6666669999999968  0.3333330000000032  0.3868640504139949   T   T   T
  0.6666669999999968  0.3333330000000032  0.5537009943709550   T   T   T
  0.6666669999999968  0.3333330000000032  0.7204816925455653   T   T   T
  0.0000000000000000  0.0000000000000000  0.3590571471085585   T   T   T
  0.0000000000000000  0.0000000000000000  0.5259048635703579   T   T   T
  0.0000000000000000  0.0000000000000000  0.6927079145995820   T   T   T
  0.6666669999999968  0.3333330000000032  0.3033824676504291   T   T   T
  0.6666669999999968  0.3333330000000032  0.4702886249711309   T   T   T
  0.6666669999999968  0.3333330000000032  0.6371121366382981   T   T   T
  0.3333330000000032  0.6666669999999968  0.4146779442677464   T   T   T
  0.3333330000000032  0.6666669999999968  0.5815156042766655   T   T   T
  0.3333330000000032  0.6666669999999968  0.7483648036139580   T   T   T
  0.0000000000000000  0.0000000000000000  0.0272156126823119   T   T   T
  0.0000000000000000  0.0000000000000000  0.2390093323457051   T   T   T
  0.6666669999999968  0.3333330000000032  0.1897587227466023   T   T   T
  0.3333330000000032  0.6666669999999968  0.0782728217215332   T   T   T
  0.0000000000000000  0.0000000000000000  0.8127209022820820   T   T   T
  0.6666669999999968  0.3333330000000032  0.9761771677379216   T   T   T
  0.3333330000000032  0.6666669999999968  0.8619056655901063   T   T   T
 
  0.00000000E+00  0.00000000E+00  0.00000000E+00
  0.00000000E+00  0.00000000E+00  0.00000000E+00
  0.00000000E+00  0.00000000E+00  0.00000000E+00
  0.00000000E+00  0.00000000E+00  0.00000000E+00
  0.00000000E+00  0.00000000E+00  0.00000000E+00
  0.00000000E+00  0.00000000E+00  0.00000000E+00
  0.00000000E+00  0.00000000E+00  0.00000000E+00
  0.00000000E+00  0.00000000E+00  0.00000000E+00
  0.00000000E+00  0.00000000E+00  0.00000000E+00
  0.00000000E+00  0.00000000E+00  0.00000000E+00
  0.00000000E+00  0.00000000E+00  0.00000000E+00
  0.00000000E+00  0.00000000E+00  0.00000000E+00
  0.00000000E+00  0.00000000E+00  0.00000000E+00
  0.00000000E+00  0.00000000E+00  0.00000000E+00
  0.00000000E+00  0.00000000E+00  0.00000000E+00
  0.00000000E+00  0.00000000E+00  0.00000000E+00
  0.00000000E+00  0.00000000E+00  0.00000000E+00
  0.00000000E+00  0.00000000E+00  0.00000000E+00
  0.00000000E+00  0.00000000E+00  0.00000000E+00
  0.00000000E+00  0.00000000E+00  0.00000000E+00
  0.00000000E+00  0.00000000E+00  0.00000000E+00
  0.00000000E+00  0.00000000E+00  0.00000000E+00
  0.00000000E+00  0.00000000E+00  0.00000000E+00
  0.00000000E+00  0.00000000E+00  0.00000000E+00
  0.00000000E+00  0.00000000E+00  0.00000000E+00
  0.00000000E+00  0.00000000E+00  0.00000000E+00
