Layer                                   
   1.00000000000000     
     2.6004576726853683   -1.5013744842201957    0.0000000000000000
     0.0000000000000000    3.0027489684403914    0.0000000000000000
0.0000000000000007 -0.0000000000000001 44.3239514343767459
   O    Mg   Al
    10     9     7
Selective dynamics
Direct
  0.0000000000000000  0.0000000000000000  0.2755637157143316   T   T   T
  0.3333330000000032  0.6666669999999968  0.3294223188342135   T   T   T
  0.0000000000000000  0.0000000000000000  0.4416745790901359   T   T   T
  0.3333330000000032  0.6666669999999968  0.4978438995032696   T   T   T
  0.0000000000000000  0.0000000000000000  0.6102068736285314   T   T   T
  0.3333330000000032  0.6666669999999968  0.6663245218643401   T   T   T
  0.0000000000000000  0.0000000000000000  0.7762746727229805   T   T   T
  0.6666669999999968  0.3333330000000032  0.3855435462054857   T   T   T
  0.6666669999999968  0.3333330000000032  0.5540442956754646   T   T   T
  0.6666669999999968  0.3333330000000032  0.7224322822410212   T   T   T
  0.0000000000000000  0.0000000000000000  0.3574798239948724   T   T   T
  0.0000000000000000  0.0000000000000000  0.5259444588470658   T   T   T
  0.0000000000000000  0.0000000000000000  0.6943772902158385   T   T   T
  0.6666669999999968  0.3333330000000032  0.3012661694719544   T   T   T
  0.6666669999999968  0.3333330000000032  0.4697556021367594   T   T   T
  0.6666669999999968  0.3333330000000032  0.6382650567908846   T   T   T
  0.3333330000000032  0.6666669999999968  0.4136076875741120   T   T   T
  0.3333330000000032  0.6666669999999968  0.5821290889851559   T   T   T
  0.3333330000000032  0.6666669999999968  0.7505777413989684   T   T   T
  0.0000000000000000  0.0000000000000000  0.0268805071980869   T   T   T
  0.0000000000000000  0.0000000000000000  0.2362759238743909   T   T   T
  0.6666669999999968  0.3333330000000032  0.1865026269148172   T   T   T
  0.3333330000000032  0.6666669999999968  0.0784069694253046   T   T   T
  0.0000000000000000  0.0000000000000000  0.8155512530205421   T   T   T
  0.6666669999999968  0.3333330000000032  0.9753719891588596   T   T   T
  0.3333330000000032  0.6666669999999968  0.8652441055126320   T   T   T
 
  0.00000000E+00  0.00000000E+00  0.00000000E+00
  0.00000000E+00  0.00000000E+00  0.00000000E+00
  0.00000000E+00  0.00000000E+00  0.00000000E+00
  0.00000000E+00  0.00000000E+00  0.00000000E+00
  0.00000000E+00  0.00000000E+00  0.00000000E+00
  0.00000000E+00  0.00000000E+00  0.00000000E+00
  0.00000000E+00  0.00000000E+00  0.00000000E+00
  0.00000000E+00  0.00000000E+00  0.00000000E+00
  0.00000000E+00  0.00000000E+00  0.00000000E+00
  0.00000000E+00  0.00000000E+00  0.00000000E+00
  0.00000000E+00  0.00000000E+00  0.00000000E+00
  0.00000000E+00  0.00000000E+00  0.00000000E+00
  0.00000000E+00  0.00000000E+00  0.00000000E+00
  0.00000000E+00  0.00000000E+00  0.00000000E+00
  0.00000000E+00  0.00000000E+00  0.00000000E+00
  0.00000000E+00  0.00000000E+00  0.00000000E+00
  0.00000000E+00  0.00000000E+00  0.00000000E+00
  0.00000000E+00  0.00000000E+00  0.00000000E+00
  0.00000000E+00  0.00000000E+00  0.00000000E+00
  0.00000000E+00  0.00000000E+00  0.00000000E+00
  0.00000000E+00  0.00000000E+00  0.00000000E+00
  0.00000000E+00  0.00000000E+00  0.00000000E+00
  0.00000000E+00  0.00000000E+00  0.00000000E+00
  0.00000000E+00  0.00000000E+00  0.00000000E+00
  0.00000000E+00  0.00000000E+00  0.00000000E+00
  0.00000000E+00  0.00000000E+00  0.00000000E+00
