OT hollow                               
   1.00000000000000     
     2.5811541392653616   -1.5324138013876256    0.0027477723695831
    -0.0365325771383558    3.0015513008946511   -0.0027477716826384
     0.0222045901268964   -0.0384594709818474   41.3685404717707641
   O    Mg   Al
    10     9     7
Selective dynamics
Direct
  0.5067200810249007  0.4932799189493636  0.2508393318705385   T   T   T
  0.5067220513921270  0.4932779486069991  0.4343510488829341   T   T   T
  0.4932752377199990  0.5067247622809672  0.6177220476277463   T   T   T
  0.4932799958135297  0.5067200042161141  0.8012361818630791   T   T   T
  0.8488251686946039  0.1511748313022841  0.3118444848610446   T   T   T
  0.1777638807194460  0.8222361192797015  0.3731476524518412   T   T   T
  0.8355989566345116  0.1644010433659148  0.4954534847996839   T   T   T
  0.1643965215094910  0.8356034784901678  0.5566189531994140   T   T   T
  0.8222338565490405  0.1777661434522886  0.6789264830112444   T   T   T
  0.1511744426403613  0.8488255573643494  0.7402303874703097   T   T   T
  0.5133347339112232  0.4866652660950939  0.3425489650264517   T   T   T
  0.4999971762549877  0.5000028237450052  0.5260361825330172   T   T   T
  0.4866638211793597  0.5133361788149916  0.7095257377618395   T   T   T
  0.1850371283961507  0.8149628717795379  0.2812587253251767   T   T   T
  0.8422579387361632  0.1577420612575630  0.4037771382084758   T   T   T
  0.1712673460238087  0.8287326539758859  0.4649195534877847   T   T   T
  0.8287291015416995  0.1712708984585560  0.5871532887443001   T   T   T
  0.1577390034169550  0.8422609965889640  0.6482964805630669   T   T   T
  0.8149636023240369  0.1850363974970058  0.7708166546783143   T   T   T
  0.0000079831506247  0.9999920168161361  0.0260365814402287   T   T   T
  0.9891600256130054  0.0108399742452267  0.2148670333453460   T   T   T
  0.6928100156199546  0.3071899844057602  0.1534971980429163   T   T   T
  0.3244639739940196  0.6755360260020580  0.0881833017056911   T   T   T
  0.0108376173361724  0.9891623827977791  0.8372086779711396   T   T   T
  0.6755522762488061  0.3244477237905791  0.9638917917952874   T   T   T
  0.3071880635550296  0.6928119364217072  0.8985796333331403   T   T   T
 
  0.00000000E+00  0.00000000E+00  0.00000000E+00
  0.00000000E+00  0.00000000E+00  0.00000000E+00
  0.00000000E+00  0.00000000E+00  0.00000000E+00
  0.00000000E+00  0.00000000E+00  0.00000000E+00
  0.00000000E+00  0.00000000E+00  0.00000000E+00
  0.00000000E+00  0.00000000E+00  0.00000000E+00
  0.00000000E+00  0.00000000E+00  0.00000000E+00
  0.00000000E+00  0.00000000E+00  0.00000000E+00
  0.00000000E+00  0.00000000E+00  0.00000000E+00
  0.00000000E+00  0.00000000E+00  0.00000000E+00
  0.00000000E+00  0.00000000E+00  0.00000000E+00
  0.00000000E+00  0.00000000E+00  0.00000000E+00
  0.00000000E+00  0.00000000E+00  0.00000000E+00
  0.00000000E+00  0.00000000E+00  0.00000000E+00
  0.00000000E+00  0.00000000E+00  0.00000000E+00
  0.00000000E+00  0.00000000E+00  0.00000000E+00
  0.00000000E+00  0.00000000E+00  0.00000000E+00
  0.00000000E+00  0.00000000E+00  0.00000000E+00
  0.00000000E+00  0.00000000E+00  0.00000000E+00
  0.00000000E+00  0.00000000E+00  0.00000000E+00
  0.00000000E+00  0.00000000E+00  0.00000000E+00
  0.00000000E+00  0.00000000E+00  0.00000000E+00
  0.00000000E+00  0.00000000E+00  0.00000000E+00
  0.00000000E+00  0.00000000E+00  0.00000000E+00
  0.00000000E+00  0.00000000E+00  0.00000000E+00
  0.00000000E+00  0.00000000E+00  0.00000000E+00
