Layer (20)                              
   1.00000000000000     
     2.5851399813437097   -1.4925270234297661    0.0000000000000001
     0.0000000000000000    2.9850540468595321    0.0000000000000000
    -0.0000000000000006    0.0000000000000000   82.2074044781549702
     Al
        7
Selective dynamics
Direct
 -0.0000000000000000 -0.0000000000000000  0.2335463920262594   T   T   T
 -0.0000000000000000 -0.0000000000000000  0.3147048849464706   T   T   T
  0.0000000000000000  0.0000000000000000  0.3956095991085729   T   T   T
  0.6666669999999968  0.3333330000000032  0.2878610550559869   T   T   T
  0.6666669999999968  0.3333330000000032  0.3687784505108810   T   T   T
  0.3333330000000032  0.6666669999999968  0.2609127640967575   T   T   T
  0.3333330000000032  0.6666669999999968  0.3417500453098780   T   T   T
 
  0.00000000E+00  0.00000000E+00  0.00000000E+00
  0.00000000E+00  0.00000000E+00  0.00000000E+00
  0.00000000E+00  0.00000000E+00  0.00000000E+00
  0.00000000E+00  0.00000000E+00  0.00000000E+00
  0.00000000E+00  0.00000000E+00  0.00000000E+00
  0.00000000E+00  0.00000000E+00  0.00000000E+00
  0.00000000E+00  0.00000000E+00  0.00000000E+00
  0.00000000E+00  0.00000000E+00  0.00000000E+00
  0.00000000E+00  0.00000000E+00  0.00000000E+00
  0.00000000E+00  0.00000000E+00  0.00000000E+00
  0.00000000E+00  0.00000000E+00  0.00000000E+00
  0.00000000E+00  0.00000000E+00  0.00000000E+00
  0.00000000E+00  0.00000000E+00  0.00000000E+00
  0.00000000E+00  0.00000000E+00  0.00000000E+00
  0.00000000E+00  0.00000000E+00  0.00000000E+00
  0.00000000E+00  0.00000000E+00  0.00000000E+00
  0.00000000E+00  0.00000000E+00  0.00000000E+00
  0.00000000E+00  0.00000000E+00  0.00000000E+00
  0.00000000E+00  0.00000000E+00  0.00000000E+00
  0.00000000E+00  0.00000000E+00  0.00000000E+00
  0.00000000E+00  0.00000000E+00  0.00000000E+00
  0.00000000E+00  0.00000000E+00  0.00000000E+00
  0.00000000E+00  0.00000000E+00  0.00000000E+00
  0.00000000E+00  0.00000000E+00  0.00000000E+00
  0.00000000E+00  0.00000000E+00  0.00000000E+00
  0.00000000E+00  0.00000000E+00  0.00000000E+00
  0.00000000E+00  0.00000000E+00  0.00000000E+00
  0.00000000E+00  0.00000000E+00  0.00000000E+00
