Layer                                   
   1.00000000000000     
     2.5925900057573852   -1.4952752265876454    0.0518951647512091
     0.0013482762012733    2.9928857367913029   -0.0518951489622574
     0.4089676063014350   -0.7083524578609989   47.9444823467805321
   O    Mg   Al
     9    10     7
Selective dynamics
Direct
  0.5520930437546641  0.4479069562532160  0.3719715327532031   T   T   T
  0.5000211558102298  0.4999788441890241  0.5257637436008336   T   T   T
  0.4479538820724527  0.5520461179182538  0.6795448559738267   T   T   T
  0.2361498861642930  0.7638501138241818  0.3208578661773481   T   T   T
  0.8680368822406203  0.1319631177643396  0.4231830941913983   T   T   T
  0.1840112540565424  0.8159887459420437  0.4744748669602546   T   T   T
  0.8160343094883313  0.1839656905118320  0.5770454132610939   T   T   T
  0.1320099827927096  0.8679900172009171  0.6283357071540517   T   T   T
  0.7638979458123181  0.2361020541999246  0.7306568335120867   T   T   T
  0.5784048229511367  0.4215951770543984  0.2946175708320424   T   T   T
  0.5260182155689509  0.4739817844341469  0.4488196789044311   T   T   T
  0.4740282663921229  0.5259717336064342  0.6027012617290479   T   T   T
  0.4216436401268093  0.5783563598648349  0.7568968250954443   T   T   T
  0.8941208299970346  0.1058791700176523  0.3463773698708251   T   T   T
  0.2100520237968697  0.7899479762104914  0.3975736925018918   T   T   T
  0.8420196601651084  0.1579803398369449  0.5001064350268146   T   T   T
  0.1580261045113900  0.8419738954876721  0.5514145404227350   T   T   T
  0.7899950068365023  0.2100049931576001  0.6539450271584983   T   T   T
  0.1059253684982041  0.8940746314889492  0.7051405964253087   T   T   T
  0.9999022558494548  0.0000977441448324  0.0259140686020304   T   T   T
  0.9289909854449498  0.0710090145697015  0.2442807097471215   T   T   T
  0.6349538474273123  0.3650461525472785  0.1177444500114274   T   T   T
  0.3176670206814334  0.6823329793151560  0.0713416044328440   T   T   T
  0.0710583915517764  0.9289416084313767  0.8072335413196283   T   T   T
  0.6821367870042027  0.3178632130069597  0.9804872937869421   T   T   T
  0.3648484310046227  0.6351515690217884  0.9340864205488014   T   T   T
 
  0.00000000E+00  0.00000000E+00  0.00000000E+00
  0.00000000E+00  0.00000000E+00  0.00000000E+00
  0.00000000E+00  0.00000000E+00  0.00000000E+00
  0.00000000E+00  0.00000000E+00  0.00000000E+00
  0.00000000E+00  0.00000000E+00  0.00000000E+00
  0.00000000E+00  0.00000000E+00  0.00000000E+00
  0.00000000E+00  0.00000000E+00  0.00000000E+00
  0.00000000E+00  0.00000000E+00  0.00000000E+00
  0.00000000E+00  0.00000000E+00  0.00000000E+00
  0.00000000E+00  0.00000000E+00  0.00000000E+00
  0.00000000E+00  0.00000000E+00  0.00000000E+00
  0.00000000E+00  0.00000000E+00  0.00000000E+00
  0.00000000E+00  0.00000000E+00  0.00000000E+00
  0.00000000E+00  0.00000000E+00  0.00000000E+00
  0.00000000E+00  0.00000000E+00  0.00000000E+00
  0.00000000E+00  0.00000000E+00  0.00000000E+00
  0.00000000E+00  0.00000000E+00  0.00000000E+00
  0.00000000E+00  0.00000000E+00  0.00000000E+00
  0.00000000E+00  0.00000000E+00  0.00000000E+00
  0.00000000E+00  0.00000000E+00  0.00000000E+00
  0.00000000E+00  0.00000000E+00  0.00000000E+00
  0.00000000E+00  0.00000000E+00  0.00000000E+00
  0.00000000E+00  0.00000000E+00  0.00000000E+00
  0.00000000E+00  0.00000000E+00  0.00000000E+00
  0.00000000E+00  0.00000000E+00  0.00000000E+00
  0.00000000E+00  0.00000000E+00  0.00000000E+00
