Layer                                   
   1.00000000000000     
     2.5925900057573852   -1.4952752265876454    0.0518951647512091
     0.0013482762012733    2.9928857367913029   -0.0518951489622574
     0.4089676063014350   -0.7083524578609989   45.5271134889596709
   O    Mg   Al
     9    10     7
Selective dynamics
Direct
  0.5551762455923113  0.4448237544155686  0.3582828825464806   T   T   T
  0.5000106293462984  0.4999893706529553  0.5257890886511335   T   T   T
  0.4448470615773749  0.5551529384133310  0.6932929930700317   T   T   T
  0.2402574670098660  0.7597425329786162  0.3025403566017051   T   T   T
  0.8701096607015543  0.1298903393034053  0.4140900899502079   T   T   T
  0.1850448159232576  0.8149551840753283  0.4699554781793262   T   T   T
  0.8149747845963725  0.1850252154037911  0.5816268905695474   T   T   T
  0.1299106595338867  0.8700893404597400  0.6374887827741021   T   T   T
  0.7597638793806050  0.2402361206316379  0.7490385269843551   T   T   T
  0.5830407687858156  0.4169592312197199  0.2738984145933496   T   T   T
  0.5275793283352392  0.4724206716678657  0.4420076322260743   T   T   T
  0.4724431817756330  0.5275568182229244  0.6095652592584149   T   T   T
  0.4169803200725792  0.5830196799190581  0.7776809784888079   T   T   T
  0.8977069474088568  0.1022930526058227  0.3303947956719419   T   T   T
  0.2126363726236369  0.7873636273837243  0.3861829205884642   T   T   T
  0.8425362170256208  0.1574637829764328  0.4978464739327069   T   T   T
  0.1574900474315604  0.8425099525675017  0.5537171581593274   T   T   T
  0.7873835408960721  0.2126164590980300  0.6653973463877970   T   T   T
  0.1023101933168545  0.8976898066703061  0.7211958332755748   T   T   T
  0.9999380497044111  0.0000619502898761  0.0257888067216887   T   T   T
  0.9360113606642284  0.0639886393504231  0.2142947882902897   T   T   T
  0.6234175467628046  0.3765824532117861  0.1487693982557913   T   T   T
  0.3131954942931824  0.6868045057034072  0.0860361847841112   T   T   T
  0.0640064757687561  0.9359935242143967  0.8372808462155714   T   T   T
  0.6867288359610423  0.3132711640501199  0.9655412588739608   T   T   T
  0.3765001155122222  0.6234998845141885  0.9028118149491688   T   T   T
 
  0.00000000E+00  0.00000000E+00  0.00000000E+00
  0.00000000E+00  0.00000000E+00  0.00000000E+00
  0.00000000E+00  0.00000000E+00  0.00000000E+00
  0.00000000E+00  0.00000000E+00  0.00000000E+00
  0.00000000E+00  0.00000000E+00  0.00000000E+00
  0.00000000E+00  0.00000000E+00  0.00000000E+00
  0.00000000E+00  0.00000000E+00  0.00000000E+00
  0.00000000E+00  0.00000000E+00  0.00000000E+00
  0.00000000E+00  0.00000000E+00  0.00000000E+00
  0.00000000E+00  0.00000000E+00  0.00000000E+00
  0.00000000E+00  0.00000000E+00  0.00000000E+00
  0.00000000E+00  0.00000000E+00  0.00000000E+00
  0.00000000E+00  0.00000000E+00  0.00000000E+00
  0.00000000E+00  0.00000000E+00  0.00000000E+00
  0.00000000E+00  0.00000000E+00  0.00000000E+00
  0.00000000E+00  0.00000000E+00  0.00000000E+00
  0.00000000E+00  0.00000000E+00  0.00000000E+00
  0.00000000E+00  0.00000000E+00  0.00000000E+00
  0.00000000E+00  0.00000000E+00  0.00000000E+00
  0.00000000E+00  0.00000000E+00  0.00000000E+00
  0.00000000E+00  0.00000000E+00  0.00000000E+00
  0.00000000E+00  0.00000000E+00  0.00000000E+00
  0.00000000E+00  0.00000000E+00  0.00000000E+00
  0.00000000E+00  0.00000000E+00  0.00000000E+00
  0.00000000E+00  0.00000000E+00  0.00000000E+00
  0.00000000E+00  0.00000000E+00  0.00000000E+00
