Layer                                   
   1.00000000000000     
     2.5925900057573852   -1.4952752265876454    0.0518951647512091
     0.0013482762012733    2.9928857367913029   -0.0518951489622574
0.4089676063014350 -0.7083524578609989 45.5271134889596676
   O    Mg   Al
     9    10     7
Selective dynamics
Direct
  0.5553490385518942  0.4446509614559855  0.3571128369847137   T   T   T
  0.5000120829863276  0.4999879170129262  0.5257885863260275   T   T   T
  0.4446715706366006  0.5553284293541055  0.6944653476655542   T   T   T
  0.2405569940570567  0.7594430059314257  0.3009409514237393   T   T   T
  0.8701831034603544  0.1298168965446051  0.4133383619246579   T   T   T
  0.1850681397289879  0.8149318602695980  0.4696041162703669   T   T   T
  0.8149547603834633  0.1850452396167002  0.5819737169733032   T   T   T
  0.1298380780153671  0.8701619219782593  0.6382400628071716   T   T   T
  0.7594632974425116  0.2405367025697310  0.7506369270661869   T   T   T
  0.5834131739752784  0.4165868260302567  0.2720391497992224   T   T   T
  0.5276108459653077  0.4723891540377972  0.4414875866879190   T   T   T
  0.4724106002631507  0.5275893997354064  0.6100919689960634   T   T   T
  0.4166080565703389  0.5833919434212980  0.7795368259164330   T   T   T
  0.8979534010291899  0.1020465989854897  0.3289918689074797   T   T   T
  0.2127422442165432  0.7872577557908179  0.3852555784252312   T   T   T
  0.8425328386174873  0.1574671613845662  0.4977115273077662   T   T   T
  0.1574895346542436  0.8425104653448183  0.5538693682913053   T   T   T
  0.7872786458840854  0.2127213541100173  0.6663222539308277   T   T   T
  0.1020681967101412  0.8979318032770193  0.7225832766448420   T   T   T
  0.9999415493371177  0.0000584506571695  0.0257900346240277   T   T   T
  0.9364739352806032  0.0635260647340478  0.2120896983034904   T   T   T
  0.6240327734736316  0.3759672265009594  0.1476416142621298   T   T   T
  0.3134425702748062  0.6865574297217831  0.0847630346862198   T   T   T
  0.0635398091386514  0.9364601908445019  0.8394859668355360   T   T   T
  0.6864749510542738  0.3135250489568888  0.9668167838880858   T   T   T
  0.3758898082926139  0.6241101917337970  0.9039375550516290   T   T   T
 
  0.00000000E+00  0.00000000E+00  0.00000000E+00
  0.00000000E+00  0.00000000E+00  0.00000000E+00
  0.00000000E+00  0.00000000E+00  0.00000000E+00
  0.00000000E+00  0.00000000E+00  0.00000000E+00
  0.00000000E+00  0.00000000E+00  0.00000000E+00
  0.00000000E+00  0.00000000E+00  0.00000000E+00
  0.00000000E+00  0.00000000E+00  0.00000000E+00
  0.00000000E+00  0.00000000E+00  0.00000000E+00
  0.00000000E+00  0.00000000E+00  0.00000000E+00
  0.00000000E+00  0.00000000E+00  0.00000000E+00
  0.00000000E+00  0.00000000E+00  0.00000000E+00
  0.00000000E+00  0.00000000E+00  0.00000000E+00
  0.00000000E+00  0.00000000E+00  0.00000000E+00
  0.00000000E+00  0.00000000E+00  0.00000000E+00
  0.00000000E+00  0.00000000E+00  0.00000000E+00
  0.00000000E+00  0.00000000E+00  0.00000000E+00
  0.00000000E+00  0.00000000E+00  0.00000000E+00
  0.00000000E+00  0.00000000E+00  0.00000000E+00
  0.00000000E+00  0.00000000E+00  0.00000000E+00
  0.00000000E+00  0.00000000E+00  0.00000000E+00
  0.00000000E+00  0.00000000E+00  0.00000000E+00
  0.00000000E+00  0.00000000E+00  0.00000000E+00
  0.00000000E+00  0.00000000E+00  0.00000000E+00
  0.00000000E+00  0.00000000E+00  0.00000000E+00
  0.00000000E+00  0.00000000E+00  0.00000000E+00
  0.00000000E+00  0.00000000E+00  0.00000000E+00
