Layer (20)                              
   1.00000000000000     
     2.5851399813437097   -1.4925270234297661    0.0000000000000001
     0.0000000000000000    2.9850540468595321    0.0000000000000000
    -0.0000000000000006    0.0000000000000000   82.2074044781549702
   O    Mg   Al
    10    11     7
Selective dynamics
Direct
  0.0000000000000000  0.0000000000000000  0.4402319066523788   T   T   T
  0.3333330000000032  0.6666669999999968  0.4700247632311374   T   T   T
  0.0000000000000000  0.0000000000000000  0.5296966410256303   T   T   T
  0.3333330000000032  0.6666669999999968  0.5595692888725594   T   T   T
  0.0000000000000000  0.0000000000000000  0.6193576422229370   T   T   T
  0.3333330000000032  0.6666669999999968  0.6492492516694313   T   T   T
  0.0000000000000000  0.0000000000000000  0.7090176314781118   T   T   T
  0.6666669999999968  0.3333330000000032  0.4998518432617871   T   T   T
  0.6666669999999968  0.3333330000000032  0.5894658580384231   T   T   T
  0.6666669999999968  0.3333330000000032  0.6791496428777890   T   T   T
  0.0000000000000000  0.0000000000000000  0.4849977892572994   T   T   T
  0.0000000000000000  0.0000000000000000  0.5745801152562180   T   T   T
  0.0000000000000000  0.0000000000000000  0.6642568400122499   T   T   T
  0.6666669999999968  0.3333330000000032  0.4551643027555272   T   T   T
  0.6666669999999968  0.3333330000000032  0.5446886007809297   T   T   T
  0.6666669999999968  0.3333330000000032  0.6343712708686766   T   T   T
  0.6666669999999968  0.3333330000000032  0.7246707726466184   T   T   T
  0.3333330000000032  0.6666669999999968  0.4248217010470441   T   T   T
  0.3333330000000032  0.6666669999999968  0.5148405129915545   T   T   T
  0.3333330000000032  0.6666669999999968  0.6044723283667821   T   T   T
  0.3333330000000032  0.6666669999999968  0.6941681056321158   T   T   T
  0.0000000000000000  0.0000000000000000  0.2335463920262626   T   T   T
  0.0000000000000000  0.0000000000000000  0.3147048849464724   T   T   T
  0.0000000000000000  0.0000000000000000  0.3956095991085746   T   T   T
  0.6666669999999968  0.3333330000000032  0.2878610550559841   T   T   T
  0.6666669999999968  0.3333330000000032  0.3687784505108809   T   T   T
  0.3333330000000032  0.6666669999999968  0.2609127640967586   T   T   T
  0.3333330000000032  0.6666669999999968  0.3417500453098796   T   T   T
 
  0.00000000E+00  0.00000000E+00  0.00000000E+00
  0.00000000E+00  0.00000000E+00  0.00000000E+00
  0.00000000E+00  0.00000000E+00  0.00000000E+00
  0.00000000E+00  0.00000000E+00  0.00000000E+00
  0.00000000E+00  0.00000000E+00  0.00000000E+00
  0.00000000E+00  0.00000000E+00  0.00000000E+00
  0.00000000E+00  0.00000000E+00  0.00000000E+00
  0.00000000E+00  0.00000000E+00  0.00000000E+00
  0.00000000E+00  0.00000000E+00  0.00000000E+00
  0.00000000E+00  0.00000000E+00  0.00000000E+00
  0.00000000E+00  0.00000000E+00  0.00000000E+00
  0.00000000E+00  0.00000000E+00  0.00000000E+00
  0.00000000E+00  0.00000000E+00  0.00000000E+00
  0.00000000E+00  0.00000000E+00  0.00000000E+00
  0.00000000E+00  0.00000000E+00  0.00000000E+00
  0.00000000E+00  0.00000000E+00  0.00000000E+00
  0.00000000E+00  0.00000000E+00  0.00000000E+00
  0.00000000E+00  0.00000000E+00  0.00000000E+00
  0.00000000E+00  0.00000000E+00  0.00000000E+00
  0.00000000E+00  0.00000000E+00  0.00000000E+00
  0.00000000E+00  0.00000000E+00  0.00000000E+00
  0.00000000E+00  0.00000000E+00  0.00000000E+00
  0.00000000E+00  0.00000000E+00  0.00000000E+00
  0.00000000E+00  0.00000000E+00  0.00000000E+00
  0.00000000E+00  0.00000000E+00  0.00000000E+00
  0.00000000E+00  0.00000000E+00  0.00000000E+00
  0.00000000E+00  0.00000000E+00  0.00000000E+00
  0.00000000E+00  0.00000000E+00  0.00000000E+00
