OT hollow                               
   1.00000000000000     
     2.5811541392653616   -1.5324138013876256    0.0027477723695831
    -0.0365325771383558    3.0015513008946511   -0.0027477716826384
     0.0222045901268964   -0.0384594709818474   38.6872461819337659
   O    Mg   Al
    10     9     7
Selective dynamics
Direct
  0.5032748123642334  0.4967251876100308  0.2383599039427877   T   T   T
  0.5051573673551005  0.4948426326440257  0.4301191843659276   T   T   T
  0.4947955461245959  0.5052044538763703  0.6219552254832571   T   T   T
  0.4967307296678629  0.5032692703617809  0.8137071452839968   T   T   T
  0.8460287028375151  0.1539712971593725  0.3021404365007792   T   T   T
  0.1754542607137432  0.8245457392854041  0.3661241949447084   T   T   T
  0.8350250719233705  0.1649749280770485  0.4940955595427990   T   T   T
  0.1649173425078243  0.8350826574918346  0.5579799194026427   T   T   T
  0.8245223159562088  0.1754776840451198  0.6859491802712243   T   T   T
  0.1539493975735461  0.8460506024311649  0.7499360224112668   T   T   T
  0.5106538196216081  0.4893461803847087  0.3341393539915220   T   T   T
  0.4999848096565123  0.5000151903434804  0.5260399765485948   T   T   T
  0.4893260760560300  0.5106739239383209  0.7179302972437914   T   T   T
  0.1822084329843876  0.8177915671912941  0.2701596748135570   T   T   T
  0.8402498353055714  0.1597501646881546  0.3981233589044584   T   T   T
  0.1700678195450065  0.8299321804546881  0.4621058291655536   T   T   T
  0.8299025602819897  0.1700974397182665  0.5899709529848602   T   T   T
  0.1597259776699645  0.8402740223359545  0.6539504560001316   T   T   T
  0.8177816409003218  0.1822183589207205  0.7819084905076540   T   T   T
  0.0000591004279927  0.9999408995387680  0.0260418812339612   T   T   T
  0.9878392517174167  0.0121607481408156  0.2007092051120688   T   T   T
  0.6761064623775110  0.3238935376482033  0.1437424078306996   T   T   T
  0.3305124506001300  0.6694875493959478  0.0847300104401347   T   T   T
  0.0121879121157496  0.9878120880182021  0.8513678900564683   T   T   T
  0.6695924692787049  0.3304075307606731  0.9673499811996402   T   T   T
  0.3239458344370876  0.6760541655396493  0.9083304618175325   T   T   T
 
  0.00000000E+00  0.00000000E+00  0.00000000E+00
  0.00000000E+00  0.00000000E+00  0.00000000E+00
  0.00000000E+00  0.00000000E+00  0.00000000E+00
  0.00000000E+00  0.00000000E+00  0.00000000E+00
  0.00000000E+00  0.00000000E+00  0.00000000E+00
  0.00000000E+00  0.00000000E+00  0.00000000E+00
  0.00000000E+00  0.00000000E+00  0.00000000E+00
  0.00000000E+00  0.00000000E+00  0.00000000E+00
  0.00000000E+00  0.00000000E+00  0.00000000E+00
  0.00000000E+00  0.00000000E+00  0.00000000E+00
  0.00000000E+00  0.00000000E+00  0.00000000E+00
  0.00000000E+00  0.00000000E+00  0.00000000E+00
  0.00000000E+00  0.00000000E+00  0.00000000E+00
  0.00000000E+00  0.00000000E+00  0.00000000E+00
  0.00000000E+00  0.00000000E+00  0.00000000E+00
  0.00000000E+00  0.00000000E+00  0.00000000E+00
  0.00000000E+00  0.00000000E+00  0.00000000E+00
  0.00000000E+00  0.00000000E+00  0.00000000E+00
  0.00000000E+00  0.00000000E+00  0.00000000E+00
  0.00000000E+00  0.00000000E+00  0.00000000E+00
  0.00000000E+00  0.00000000E+00  0.00000000E+00
  0.00000000E+00  0.00000000E+00  0.00000000E+00
  0.00000000E+00  0.00000000E+00  0.00000000E+00
  0.00000000E+00  0.00000000E+00  0.00000000E+00
  0.00000000E+00  0.00000000E+00  0.00000000E+00
  0.00000000E+00  0.00000000E+00  0.00000000E+00
