K-Spacing Value to Generate K-Mesh: 0.020
0
Monkhorst-Pack
  13  13   1
0.0  0.0  0.0
