OT hollow                               
   1.00000000000000     
     2.5811541392653616   -1.5324138013876256    0.0027477723695831
    -0.0365325771383558    3.0015513008946511   -0.0027477716826384
0.0222045901268964 -0.0384594709818474 38.6872461819337682
   O    Mg   Al
    10     9     7
Selective dynamics
Direct
  0.5020902618751313  0.4979097380991322  0.2374617942545837   T   T   T
  0.5046507121888923  0.4953492878102370  0.4298296932518635   T   T   T
  0.4952764753989538  0.5047235246020115  0.6222333726264423   T   T   T
  0.4979256656410924  0.5020743343885542  0.8146325754645226   T   T   T
  0.8449267633333621  0.1550732366635266  0.3014887266626663   T   T   T
  0.1745769681075467  0.8254230318916020  0.3656832122565194   T   T   T
  0.8348528556955362  0.1651471443048812  0.4939558491700770   T   T   T
  0.1650939805040746  0.8349060194955815  0.5580990715660997   T   T   T
  0.8253467601420215  0.1746532398593120  0.6863911238448892   T   T   T
  0.1550568340520395  0.8449431659526734  0.7506008559391278   T   T   T
  0.5096916479434034  0.4903083520629132  0.3335810057959075   T   T   T
  0.4999851458810740  0.5000148541189173  0.5260374750156249   T   T   T
  0.4902602158136714  0.5097397841806839  0.7184943473802978   T   T   T
  0.1811683787061075  0.8188316214695781  0.2693746145662474   T   T   T
  0.8395755196311760  0.1604244803625496  0.3977459908120403   T   T   T
  0.1697368617480172  0.8302631382516776  0.4618917992282726   T   T   T
  0.8302093331566416  0.1697906668436155  0.5901827723793587   T   T   T
  0.1603526011433949  0.8396473988625281  0.6543287238559019   T   T   T
  0.8188428684698604  0.1811571313511880  0.7826998977878735   T   T   T
  0.0000719378469047 -0.0000719378801439  0.0260346746242712   T   T   T
 -0.0130666409946405  0.0130666408528683  0.1996366580847299   T   T   T
  0.6751286222217512  0.3248713778039626  0.1429602758925169   T   T   T
  0.3301716789913248  0.6698283210047488  0.0843671716402739   T   T   T
  0.0131164558108388 -0.0131164556768899  0.8524413279645723   T   T   T
  0.6699848169184000  0.3300151831209801  0.9677012127826152   T   T   T
  0.3249732797734240  0.6750267202033100  0.9091127771527241   T   T   T
 
  0.00000000E+00  0.00000000E+00  0.00000000E+00
  0.00000000E+00  0.00000000E+00  0.00000000E+00
  0.00000000E+00  0.00000000E+00  0.00000000E+00
  0.00000000E+00  0.00000000E+00  0.00000000E+00
  0.00000000E+00  0.00000000E+00  0.00000000E+00
  0.00000000E+00  0.00000000E+00  0.00000000E+00
  0.00000000E+00  0.00000000E+00  0.00000000E+00
  0.00000000E+00  0.00000000E+00  0.00000000E+00
  0.00000000E+00  0.00000000E+00  0.00000000E+00
  0.00000000E+00  0.00000000E+00  0.00000000E+00
  0.00000000E+00  0.00000000E+00  0.00000000E+00
  0.00000000E+00  0.00000000E+00  0.00000000E+00
  0.00000000E+00  0.00000000E+00  0.00000000E+00
  0.00000000E+00  0.00000000E+00  0.00000000E+00
  0.00000000E+00  0.00000000E+00  0.00000000E+00
  0.00000000E+00  0.00000000E+00  0.00000000E+00
  0.00000000E+00  0.00000000E+00  0.00000000E+00
  0.00000000E+00  0.00000000E+00  0.00000000E+00
  0.00000000E+00  0.00000000E+00  0.00000000E+00
  0.00000000E+00  0.00000000E+00  0.00000000E+00
  0.00000000E+00  0.00000000E+00  0.00000000E+00
  0.00000000E+00  0.00000000E+00  0.00000000E+00
  0.00000000E+00  0.00000000E+00  0.00000000E+00
  0.00000000E+00  0.00000000E+00  0.00000000E+00
  0.00000000E+00  0.00000000E+00  0.00000000E+00
  0.00000000E+00  0.00000000E+00  0.00000000E+00
