OT hollow                               
   1.00000000000000     
     2.5811541392653616   -1.5324138013876256    0.0027477723695831
    -0.0365325771383558    3.0015513008946511   -0.0027477716826384
     0.0222045901268964   -0.0384594709818474   42.5176665959866185
   O    Mg   Al
    10     9     7
Selective dynamics
Direct
  0.5103929716785375  0.4896070282957269  0.2581533192578950   T   T   T
  0.5074137762978732  0.4925862237012528  0.4366111356613624   T   T   T
  0.4925852048614109  0.5074147951395555  0.6154623168260981   T   T   T
  0.4896060879261629  0.5103939121034808  0.7939202518462313   T   T   T
  0.8512811517738371  0.1487188482230505  0.3174231770278810   T   T   T
  0.1791307700511393  0.8208692299480083  0.3769788586713432   T   T   T
  0.8357998940367573  0.1642001059636690  0.4962556936166829   T   T   T
  0.1641993120261293  0.8358006879735298  0.5558178600490854   T   T   T
  0.8208678322577092  0.1791321677436193  0.6750946575234350   T   T   T
  0.1487167177121996  0.8512832822925110  0.7346504479870081   T   T   T
  0.5151341411913843  0.4848658588149325  0.3472296395049640   T   T   T
  0.4999994788792311  0.5000005211207615  0.5260366452857193   T   T   T
  0.4848638787085954  0.5151361212857561  0.7048437863405126   T   T   T
  0.1882364571769170  0.8117635429987715  0.2876775754399685   T   T   T
  0.8432541528609510  0.1567458471327748  0.4068195530303360   T   T   T
  0.1716074862928673  0.8283925137068266  0.4664515620516155   T   T   T
  0.8283912613900926  0.1716087386101635  0.5856217086816319   T   T   T
  0.1567447361395082  0.8432552638664108  0.6452537640438196   T   T   T
  0.8117620246423682  0.1882379751786743  0.7643959024346753   T   T   T
  0.0000073982633849  0.9999926017033763  0.0260411902101265   T   T   T
  0.9941608263081824  0.0058391735500502  0.2230966431307893   T   T   T
  0.7052893164505294  0.2947106835751850  0.1636007999580811   T   T   T
  0.3042724856935995  0.6957275143024787  0.0910747133515852   T   T   T
  0.0058361903812500  0.9941638097527017  0.8289767502880514   T   T   T
  0.6957373285470316  0.3042626714923538  0.9610086994828746   T   T   T
  0.2947091184523570  0.7052908815243798  0.8884703482982317   T   T   T
 
  0.00000000E+00  0.00000000E+00  0.00000000E+00
  0.00000000E+00  0.00000000E+00  0.00000000E+00
  0.00000000E+00  0.00000000E+00  0.00000000E+00
  0.00000000E+00  0.00000000E+00  0.00000000E+00
  0.00000000E+00  0.00000000E+00  0.00000000E+00
  0.00000000E+00  0.00000000E+00  0.00000000E+00
  0.00000000E+00  0.00000000E+00  0.00000000E+00
  0.00000000E+00  0.00000000E+00  0.00000000E+00
  0.00000000E+00  0.00000000E+00  0.00000000E+00
  0.00000000E+00  0.00000000E+00  0.00000000E+00
  0.00000000E+00  0.00000000E+00  0.00000000E+00
  0.00000000E+00  0.00000000E+00  0.00000000E+00
  0.00000000E+00  0.00000000E+00  0.00000000E+00
  0.00000000E+00  0.00000000E+00  0.00000000E+00
  0.00000000E+00  0.00000000E+00  0.00000000E+00
  0.00000000E+00  0.00000000E+00  0.00000000E+00
  0.00000000E+00  0.00000000E+00  0.00000000E+00
  0.00000000E+00  0.00000000E+00  0.00000000E+00
  0.00000000E+00  0.00000000E+00  0.00000000E+00
  0.00000000E+00  0.00000000E+00  0.00000000E+00
  0.00000000E+00  0.00000000E+00  0.00000000E+00
  0.00000000E+00  0.00000000E+00  0.00000000E+00
  0.00000000E+00  0.00000000E+00  0.00000000E+00
  0.00000000E+00  0.00000000E+00  0.00000000E+00
  0.00000000E+00  0.00000000E+00  0.00000000E+00
  0.00000000E+00  0.00000000E+00  0.00000000E+00
