OT hollow                               
   1.00000000000000     
     2.5811541392653616   -1.5324138013876256    0.0027477723695831
    -0.0365325771383558    3.0015513008946511   -0.0027477716826384
0.0222045901268964 -0.0384594709818474 42.5176665959866165
   O    Mg   Al
    10     9     7
Selective dynamics
Direct
  0.5083339278143817  0.4916660721598826  0.2554193906256493   T   T   T
  0.5069978939782376  0.4930021060208885  0.4358388319219591   T   T   T
  0.4929991625281132  0.5070008374728532  0.6162348158320958   T   T   T
  0.4916666125236439  0.5083333875059997  0.7966549871017921   T   T   T
  0.8498191554878982  0.1501808445089898  0.3153349175304071   T   T   T
  0.1782638923460223  0.8217361076531250  0.3756190891179000   T   T   T
  0.8356901006643151  0.1643098993361112  0.4959642020335230   T   T   T
  0.1643067275718049  0.8356932724278543  0.5561093532773929   T   T   T
  0.8217352785913149  0.1782647214100139  0.6764547760426770   T   T   T
  0.1501795386730664  0.8498204613316445  0.7367393620462774   T   T   T
  0.5140374551638182  0.4859625448424985  0.3454747581516070   T   T   T
  0.4999983708722099  0.5000016291277828  0.5260367078236067   T   T   T
  0.4859623602187729  0.5140376397755781  0.7065992884764570   T   T   T
  0.1867002620777307  0.8132997380979580  0.2852394675674343   T   T   T
  0.8426591930814749  0.1573408069122509  0.4057280292440483   T   T   T
  0.1713143651888502  0.8286856348108440  0.4659077251368894   T   T   T
  0.8286823039838528  0.1713176960164031  0.5861657683879825   T   T   T
  0.1573390496475345  0.8426609503583844  0.6463457022890489   T   T   T
  0.8132994065570021  0.1867005932640407  0.7668347320453500   T   T   T
  0.0000068035578068  0.9999931964089542  0.0260392780920064   T   T   T
  0.9919295657439370  0.0080704341142956  0.2199985368217824   T   T   T
  0.7027746599561620  0.2972253400695524  0.1598888366384763   T   T   T
  0.3105546978847981  0.6894453021112796  0.0885653622388999   T   T   T
  0.0080671770346848  0.9919328230992668  0.8320756925741750   T   T   T
  0.6894597445116796  0.3105402555277059  0.9635133204243739   T   T   T
  0.2972222943408948  0.7027777056358420  0.8921840685582061   T   T   T
 
  0.00000000E+00  0.00000000E+00  0.00000000E+00
  0.00000000E+00  0.00000000E+00  0.00000000E+00
  0.00000000E+00  0.00000000E+00  0.00000000E+00
  0.00000000E+00  0.00000000E+00  0.00000000E+00
  0.00000000E+00  0.00000000E+00  0.00000000E+00
  0.00000000E+00  0.00000000E+00  0.00000000E+00
  0.00000000E+00  0.00000000E+00  0.00000000E+00
  0.00000000E+00  0.00000000E+00  0.00000000E+00
  0.00000000E+00  0.00000000E+00  0.00000000E+00
  0.00000000E+00  0.00000000E+00  0.00000000E+00
  0.00000000E+00  0.00000000E+00  0.00000000E+00
  0.00000000E+00  0.00000000E+00  0.00000000E+00
  0.00000000E+00  0.00000000E+00  0.00000000E+00
  0.00000000E+00  0.00000000E+00  0.00000000E+00
  0.00000000E+00  0.00000000E+00  0.00000000E+00
  0.00000000E+00  0.00000000E+00  0.00000000E+00
  0.00000000E+00  0.00000000E+00  0.00000000E+00
  0.00000000E+00  0.00000000E+00  0.00000000E+00
  0.00000000E+00  0.00000000E+00  0.00000000E+00
  0.00000000E+00  0.00000000E+00  0.00000000E+00
  0.00000000E+00  0.00000000E+00  0.00000000E+00
  0.00000000E+00  0.00000000E+00  0.00000000E+00
  0.00000000E+00  0.00000000E+00  0.00000000E+00
  0.00000000E+00  0.00000000E+00  0.00000000E+00
  0.00000000E+00  0.00000000E+00  0.00000000E+00
  0.00000000E+00  0.00000000E+00  0.00000000E+00
