Layer (20) 
1.0 
2.536369 -1.464373 0.000000 
0.000000 2.928746 0.000000 
0.000000 0.000000 85.399053 
O Mg Al 
10 11 7 
Selective Dynamics
Direct 
-0.000000 -0.000000 0.436664 T T T 
0.333333 0.666667 0.466893 T T T 
-0.000000 0.000000 0.527349 T T T 
0.333333 0.666667 0.557577 T T T 
-0.000000 -0.000000 0.618034 T T T 
0.333333 0.666667 0.648262 T T T 
-0.000000 -0.000000 0.708719 T T T 
0.666667 0.333333 0.497121 T T T 
0.666667 0.333333 0.587806 T T T 
0.666667 0.333333 0.678491 T T T 
0.000000 0.000000 0.482007 T T T 
-0.000000 0.000000 0.572692 T T T 
-0.000000 0.000000 0.663376 T T T 
0.666667 0.333333 0.451778 T T T 
0.666667 0.333333 0.542463 T T T 
0.666667 0.333333 0.633148 T T T 
0.666667 0.333333 0.723833 T T T 
0.333333 0.666667 0.421550 T T T 
0.333333 0.666667 0.512235 T T T 
0.333333 0.666667 0.602920 T T T 
0.333333 0.666667 0.693605 T T T 
-0.000000 -0.000000 0.242808 T T T 
-0.000000 -0.000000 0.320470 T T T 
-0.000000 -0.000000 0.398131 T T T 
0.666667 0.333333 0.294582 T T T 
0.666667 0.333333 0.372244 T T T 
0.333333 0.666667 0.268695 T T T 
0.333333 0.666667 0.346357 T T T 
