Layer(26)                               
   1.00000000000000     
     2.5959741503343712   -1.5223026025804030   -0.0216319807741421
    -0.0203658138281849    3.0093305667607688    0.0216319763247703
    -0.2827683704209646    0.4897691817218413   69.1200910786235170
   O    Mg
    10     9
Selective dynamics
Direct
  0.4784799846596854  0.5215200157029756  0.4475598560663769   T   T   T
  0.5146132569843616  0.4853867425393545  0.5543611729243665   T   T   T
  0.5272687872703727  0.4727312127447689  0.6612865490251139   T   T   T
  0.5415203782295706  0.4584796220913177  0.7658200244004263   T   T   T
  0.8365175838798820  0.1634824157415409  0.4830908858553826   T   T   T
  0.1760384210828576  0.8239615783678218  0.5187318213077035   T   T   T
  0.8524876903852601  0.1475123092964026  0.5900088402989070   T   T   T
  0.1899898371109501  0.8100101627379033  0.6256453721172761   T   T   T
  0.8646475042788353  0.1353524958664849  0.6968882738683888   T   T   T
  0.2025251641429051  0.7974748360885187  0.7321868030821577   T   T   T
  0.5054033753709604  0.4945966241309279  0.5020464066990655   T   T   T
  0.5197934436707570  0.4802065561549043  0.6089448907007267   T   T   T
  0.5317779195800441  0.4682220806754742  0.7159163493048766   T   T   T
  0.1669545064112583  0.8330454934471732  0.4664234016802382   T   T   T
  0.8441655651493463  0.1558344343379972  0.5376680266371991   T   T   T
  0.1821753986618049  0.8178246009762020  0.5733041801291066   T   T   T
  0.8570858849744738  0.1429141150143138  0.6445858060983554   T   T   T
  0.1943788352061304  0.8056211649239273  0.6802356311798690   T   T   T
  0.8689104969100754  0.1310895035200943  0.7522228898189596   T   T   T
 
  0.00000000E+00  0.00000000E+00  0.00000000E+00
  0.00000000E+00  0.00000000E+00  0.00000000E+00
  0.00000000E+00  0.00000000E+00  0.00000000E+00
  0.00000000E+00  0.00000000E+00  0.00000000E+00
  0.00000000E+00  0.00000000E+00  0.00000000E+00
  0.00000000E+00  0.00000000E+00  0.00000000E+00
  0.00000000E+00  0.00000000E+00  0.00000000E+00
  0.00000000E+00  0.00000000E+00  0.00000000E+00
  0.00000000E+00  0.00000000E+00  0.00000000E+00
  0.00000000E+00  0.00000000E+00  0.00000000E+00
  0.00000000E+00  0.00000000E+00  0.00000000E+00
  0.00000000E+00  0.00000000E+00  0.00000000E+00
  0.00000000E+00  0.00000000E+00  0.00000000E+00
  0.00000000E+00  0.00000000E+00  0.00000000E+00
  0.00000000E+00  0.00000000E+00  0.00000000E+00
  0.00000000E+00  0.00000000E+00  0.00000000E+00
  0.00000000E+00  0.00000000E+00  0.00000000E+00
  0.00000000E+00  0.00000000E+00  0.00000000E+00
  0.00000000E+00  0.00000000E+00  0.00000000E+00
