Layer(26)                               
   1.00000000000000     
     2.5959741503343712   -1.5223026025804030   -0.0216319807741421
    -0.0203658138281849    3.0093305667607688    0.0216319763247703
    -0.2827683704209646    0.4897691817218413   69.1200910786235170
   O    Mg 
    10     9    
Selective dynamics
Direct
  0.4784799846596851  0.5215200157029751  0.4475598560663794   T   T   T
  0.5146132569843633  0.4853867425393514  0.5543611729243696   T   T   T
  0.5272687872703730  0.4727312127447665  0.6612865490251135   T   T   T
  0.5415203782295731  0.4584796220913198  0.7658200244004258   T   T   T
  0.8365175838798812  0.1634824157415380  0.4830908858553852   T   T   T
  0.1760384210828592  0.8239615783678207  0.5187318213077069   T   T   T
  0.8524876903852568  0.1475123092963996  0.5900088402989069   T   T   T
  0.1899898371109507  0.8100101627379060  0.6256453721172751   T   T   T
  0.8646475042788335  0.1353524958664863  0.6968882738683854   T   T   T
  0.2025251641429018  0.7974748360885185  0.7321868030821552   T   T   T
  0.5054033753709593  0.4945966241309275  0.5020464066990630   T   T   T
  0.5197934436707555  0.4802065561549064  0.6089448907007287   T   T   T
  0.5317779195800441  0.4682220806754749  0.7159163493048782   T   T   T
  0.1669545064112558  0.8330454934471712  0.4664234016802385   T   T   T
  0.8441655651493488  0.1558344343379999  0.5376680266371976   T   T   T
  0.1821753986618078  0.8178246009762035  0.5733041801291071   T   T   T
  0.8570858849744756  0.1429141150143165  0.6445858060983540   T   T   T
  0.1943788352061321  0.8056211649239274  0.6802356311798701   T   T   T
  0.8689104969100732  0.1310895035200954  0.7522228898189564   T   T   T
 
 
  0.00000000E+00  0.00000000E+00  0.00000000E+00
  0.00000000E+00  0.00000000E+00  0.00000000E+00
  0.00000000E+00  0.00000000E+00  0.00000000E+00
  0.00000000E+00  0.00000000E+00  0.00000000E+00
  0.00000000E+00  0.00000000E+00  0.00000000E+00
  0.00000000E+00  0.00000000E+00  0.00000000E+00
  0.00000000E+00  0.00000000E+00  0.00000000E+00
  0.00000000E+00  0.00000000E+00  0.00000000E+00
  0.00000000E+00  0.00000000E+00  0.00000000E+00
  0.00000000E+00  0.00000000E+00  0.00000000E+00
  0.00000000E+00  0.00000000E+00  0.00000000E+00
  0.00000000E+00  0.00000000E+00  0.00000000E+00
  0.00000000E+00  0.00000000E+00  0.00000000E+00
  0.00000000E+00  0.00000000E+00  0.00000000E+00
  0.00000000E+00  0.00000000E+00  0.00000000E+00
  0.00000000E+00  0.00000000E+00  0.00000000E+00
  0.00000000E+00  0.00000000E+00  0.00000000E+00
  0.00000000E+00  0.00000000E+00  0.00000000E+00
  0.00000000E+00  0.00000000E+00  0.00000000E+00
  0.00000000E+00  0.00000000E+00  0.00000000E+00
  0.00000000E+00  0.00000000E+00  0.00000000E+00
  0.00000000E+00  0.00000000E+00  0.00000000E+00
  0.00000000E+00  0.00000000E+00  0.00000000E+00
  0.00000000E+00  0.00000000E+00  0.00000000E+00
  0.00000000E+00  0.00000000E+00  0.00000000E+00
  0.00000000E+00  0.00000000E+00  0.00000000E+00
