K-Spacing Value to Generat
0
Monkhorst-Pack
 24  24   24
0.0  0.0  0.0
