Layer20                                 
   1.00000000000000     
     2.5829450305551194   -1.4915994750886601    0.0326812596633896
    -0.0002947304119171    2.9826884607492659   -0.0326812167338692
     0.4549586670592201   -0.7880080400697314   70.2268749128016481
   O    Mg   Al
     9    10     7
Selective dynamics
Direct
  0.5463642515088765  0.4536357303523744  0.4962498003123841   T   T   T
  0.5126104888651568  0.4873895049912775  0.6009763757916105   T   T   T
  0.4795952027242691  0.5204048059544135  0.7059028349051815   T   T   T
  0.2253468204230984  0.7746531605963938  0.4614308457948013   T   T   T
  0.8679378001306119  0.1320621843973555  0.5311417675349972   T   T   T
  0.1901405400613498  0.8098594487716326  0.5660404280705151   T   T   T
  0.8349453932013517  0.1650546057388169  0.6359543880149587   T   T   T
  0.1572527857423722  0.8427472183016675  0.6709296377597340   T   T   T
  0.8014857226591587  0.1985142902309605  0.7408064715188516   T   T   T
  0.5651316319683488  0.4348683482349998  0.4436588020890397   T   T   T
  0.5288856313092793  0.4711143552458736  0.5486709516293118   T   T   T
  0.4960251573405401  0.5039748443740777  0.6535222912659862   T   T   T
  0.4620350365196231  0.5379649784635276  0.7591444556837033   T   T   T
  0.8857844950313236  0.1142154861203650  0.4788842924162111   T   T   T
  0.2070685838032418  0.7929313991181317  0.5137690740584802   T   T   T
  0.8513420027972955  0.1486579886895427  0.5835838354096978   T   T   T
  0.1737501197927358  0.8262498767303867  0.6185444459414242   T   T   T
  0.8183993298812027  0.1816006766667257  0.6884958947379047   T   T   T
  0.1405695986917124  0.8594304122792309  0.7234547191220457   T   T   T
  0.0132014124162154  0.9867985806124224  0.2197115512233339   T   T   T
  0.9671267581066800  0.0328732581749094  0.3151477992614247   T   T   T
  0.9135660161817114  0.0864340072334926  0.4100024336594998   T   T   T
  0.6521958742549927  0.3478041322482071  0.2835085139641080   T   T   T
  0.5952087589281092  0.4047912698098557  0.3787379643443600   T   T   T
  0.3344029562307682  0.6655970430138396  0.2518365680635242   T   T   T
  0.2796276314299959  0.7203723936495052  0.3469548574269155   T   T   T
 
  0.00000000E+00  0.00000000E+00  0.00000000E+00
  0.00000000E+00  0.00000000E+00  0.00000000E+00
  0.00000000E+00  0.00000000E+00  0.00000000E+00
  0.00000000E+00  0.00000000E+00  0.00000000E+00
  0.00000000E+00  0.00000000E+00  0.00000000E+00
  0.00000000E+00  0.00000000E+00  0.00000000E+00
  0.00000000E+00  0.00000000E+00  0.00000000E+00
  0.00000000E+00  0.00000000E+00  0.00000000E+00
  0.00000000E+00  0.00000000E+00  0.00000000E+00
  0.00000000E+00  0.00000000E+00  0.00000000E+00
  0.00000000E+00  0.00000000E+00  0.00000000E+00
  0.00000000E+00  0.00000000E+00  0.00000000E+00
  0.00000000E+00  0.00000000E+00  0.00000000E+00
  0.00000000E+00  0.00000000E+00  0.00000000E+00
  0.00000000E+00  0.00000000E+00  0.00000000E+00
  0.00000000E+00  0.00000000E+00  0.00000000E+00
  0.00000000E+00  0.00000000E+00  0.00000000E+00
  0.00000000E+00  0.00000000E+00  0.00000000E+00
  0.00000000E+00  0.00000000E+00  0.00000000E+00
  0.00000000E+00  0.00000000E+00  0.00000000E+00
  0.00000000E+00  0.00000000E+00  0.00000000E+00
  0.00000000E+00  0.00000000E+00  0.00000000E+00
  0.00000000E+00  0.00000000E+00  0.00000000E+00
  0.00000000E+00  0.00000000E+00  0.00000000E+00
  0.00000000E+00  0.00000000E+00  0.00000000E+00
  0.00000000E+00  0.00000000E+00  0.00000000E+00
