Layer                                   
   1.00000000000000     
     2.5919820456764819   -1.4964810761798768    0.0000000000000000
     0.0000000000000001    2.9929621523597536    0.0000000000000000
     0.0000000000000000   -0.0000000000000001   44.2854014599465842
   O    Mg   Al
     9    10     7
Selective dynamics
Direct
  0.0000000000000000 -0.0000000000000000  0.3548751146391287   T   T   T
  0.3333330000000032  0.6666669999999968  0.4118693720388909   T   T   T
  0.0000000000000000 -0.0000000000000000  0.5257915620685075   T   T   T
  0.3333330000000032  0.6666669999999968  0.5827163978767078   T   T   T
  0.0000000000000000 -0.0000000000000000  0.6967035817612268   T   T   T
  0.3333330000000032  0.6666669999999968  0.7536677019174796   T   T   T
  0.6666669999999968  0.3333330000000032  0.2979142271200191   T   T   T
  0.6666669999999968  0.3333330000000032  0.4688669125875398   T   T   T
  0.6666669999999968  0.3333330000000032  0.6397142013878603   T   T   T
  0.0000000000000000 -0.0000000000000000  0.2684881837987336   T   T   T
  0.0000000000000000 -0.0000000000000000  0.4403753356620122   T   T   T
  0.0000000000000000 -0.0000000000000000  0.6112003767187243   T   T   T
  0.0000000000000000 -0.0000000000000000  0.7830931142814489   T   T   T
  0.6666669999999968  0.3333330000000032  0.3834019001737065   T   T   T
  0.6666669999999968  0.3333330000000032  0.5542330806595872   T   T   T
  0.6666669999999968  0.3333330000000032  0.7251744736065057   T   T   T
  0.3333330000000032  0.6666669999999968  0.3264149202031433   T   T   T
  0.3333330000000032  0.6666669999999968  0.4973397501434849   T   T   T
  0.3333330000000032  0.6666669999999968  0.6681818964154533   T   T   T
  0.0000000000000000 -0.0000000000000000  0.0257853558440816   T   T   T
  0.0000000000000000 -0.0000000000000000  0.1936656141276304   T   T   T
  0.6666669999999968  0.3333330000000032  0.1369343417604565   T   T   T
  0.3333330000000032  0.6666669999999968  0.0819944716490847   T   T   T
  0.0000000000000000 -0.0000000000000000  0.8579019646193231   T   T   T
  0.6666669999999968  0.3333330000000032  0.9695758412099281   T   T   T
  0.3333330000000032  0.6666669999999968  0.9146353077293863   T   T   T
 
  0.00000000E+00  0.00000000E+00  0.00000000E+00
  0.00000000E+00  0.00000000E+00  0.00000000E+00
  0.00000000E+00  0.00000000E+00  0.00000000E+00
  0.00000000E+00  0.00000000E+00  0.00000000E+00
  0.00000000E+00  0.00000000E+00  0.00000000E+00
  0.00000000E+00  0.00000000E+00  0.00000000E+00
  0.00000000E+00  0.00000000E+00  0.00000000E+00
  0.00000000E+00  0.00000000E+00  0.00000000E+00
  0.00000000E+00  0.00000000E+00  0.00000000E+00
  0.00000000E+00  0.00000000E+00  0.00000000E+00
  0.00000000E+00  0.00000000E+00  0.00000000E+00
  0.00000000E+00  0.00000000E+00  0.00000000E+00
  0.00000000E+00  0.00000000E+00  0.00000000E+00
  0.00000000E+00  0.00000000E+00  0.00000000E+00
  0.00000000E+00  0.00000000E+00  0.00000000E+00
  0.00000000E+00  0.00000000E+00  0.00000000E+00
  0.00000000E+00  0.00000000E+00  0.00000000E+00
  0.00000000E+00  0.00000000E+00  0.00000000E+00
  0.00000000E+00  0.00000000E+00  0.00000000E+00
  0.00000000E+00  0.00000000E+00  0.00000000E+00
  0.00000000E+00  0.00000000E+00  0.00000000E+00
  0.00000000E+00  0.00000000E+00  0.00000000E+00
  0.00000000E+00  0.00000000E+00  0.00000000E+00
  0.00000000E+00  0.00000000E+00  0.00000000E+00
  0.00000000E+00  0.00000000E+00  0.00000000E+00
  0.00000000E+00  0.00000000E+00  0.00000000E+00
