Layer                                   
   1.00000000000000     
     2.5919820456764819   -1.4964810761798768    0.0000000000000000
     0.0000000000000001    2.9929621523597536    0.0000000000000000
0.0000000000000000 -0.0000000000000001 44.2854014599465830
   O    Mg   Al
     9    10     7
Selective dynamics
Direct
 -0.0000000000000000  0.0000000000000000  0.3532816981484337   T   T   T
  0.3333330000000032  0.6666669999999968  0.4107621651371555   T   T   T
 -0.0000000000000000  0.0000000000000000  0.5257934804330381   T   T   T
  0.3333330000000032  0.6666669999999968  0.5833264223987032   T   T   T
 -0.0000000000000000  0.0000000000000000  0.6983038104073244   T   T   T
  0.3333330000000032  0.6666669999999968  0.7557689312221056   T   T   T
  0.6666669999999968  0.3333330000000032  0.2958030947740304   T   T   T
  0.6666669999999968  0.3333330000000032  0.4682635983139539   T   T   T
  0.6666669999999968  0.3333330000000032  0.6408171475739174   T   T   T
 -0.0000000000000000  0.0000000000000000  0.2661998162381372   T   T   T
 -0.0000000000000000  0.0000000000000000  0.4395003415966075   T   T   T
 -0.0000000000000000  0.0000000000000000  0.6120771517621635   T   T   T
 -0.0000000000000000  0.0000000000000000  0.7853883283729526   T   T   T
  0.6666669999999968  0.3333330000000032  0.3820240601358688   T   T   T
  0.6666669999999968  0.3333330000000032  0.5545484790355142   T   T   T
  0.6666669999999968  0.3333330000000032  0.7270314704159199   T   T   T
  0.3333330000000032  0.6666669999999968  0.3245432832989103   T   T   T
  0.3333330000000032  0.6666669999999968  0.4970300235070753   T   T   T
  0.3333330000000032  0.6666669999999968  0.6695606162612420   T   T   T
 -0.0000000000000000  0.0000000000000000  0.0257818010891218   T   T   T
 -0.0000000000000000  0.0000000000000000  0.1946198098617073   T   T   T
  0.6666669999999968  0.3333330000000032  0.1367476835421084   T   T   T
  0.3333330000000032  0.6666669999999968  0.0810819808908913   T   T   T
 -0.0000000000000000  0.0000000000000000  0.8569565319865895   T   T   T
  0.6666669999999968  0.3333330000000032  0.9704819207742050   T   T   T
  0.3333330000000032  0.6666669999999968  0.9148213528223602   T   T   T
 
  0.00000000E+00  0.00000000E+00  0.00000000E+00
  0.00000000E+00  0.00000000E+00  0.00000000E+00
  0.00000000E+00  0.00000000E+00  0.00000000E+00
  0.00000000E+00  0.00000000E+00  0.00000000E+00
  0.00000000E+00  0.00000000E+00  0.00000000E+00
  0.00000000E+00  0.00000000E+00  0.00000000E+00
  0.00000000E+00  0.00000000E+00  0.00000000E+00
  0.00000000E+00  0.00000000E+00  0.00000000E+00
  0.00000000E+00  0.00000000E+00  0.00000000E+00
  0.00000000E+00  0.00000000E+00  0.00000000E+00
  0.00000000E+00  0.00000000E+00  0.00000000E+00
  0.00000000E+00  0.00000000E+00  0.00000000E+00
  0.00000000E+00  0.00000000E+00  0.00000000E+00
  0.00000000E+00  0.00000000E+00  0.00000000E+00
  0.00000000E+00  0.00000000E+00  0.00000000E+00
  0.00000000E+00  0.00000000E+00  0.00000000E+00
  0.00000000E+00  0.00000000E+00  0.00000000E+00
  0.00000000E+00  0.00000000E+00  0.00000000E+00
  0.00000000E+00  0.00000000E+00  0.00000000E+00
  0.00000000E+00  0.00000000E+00  0.00000000E+00
  0.00000000E+00  0.00000000E+00  0.00000000E+00
  0.00000000E+00  0.00000000E+00  0.00000000E+00
  0.00000000E+00  0.00000000E+00  0.00000000E+00
  0.00000000E+00  0.00000000E+00  0.00000000E+00
  0.00000000E+00  0.00000000E+00  0.00000000E+00
  0.00000000E+00  0.00000000E+00  0.00000000E+00
