Layer (20)                              
   1.00000000000000     
     2.5851399813437097   -1.4925270234297661    0.0000000000000001
     0.0000000000000000    2.9850540468595321    0.0000000000000000
    -0.0000000000000006    0.0000000000000000   82.2074044781549702
   O    Mg   Al
    10    11     7
Selective dynamics
Direct
  0.0000000000000000  0.0000000000000000  0.4404369841255118   T   T   T
  0.3333330000000032  0.6666669999999968  0.4701720491857699   T   T   T
  0.0000000000000000  0.0000000000000000  0.5297987782881037   T   T   T
  0.3333330000000032  0.6666669999999968  0.5596597608136378   T   T   T
  0.0000000000000000  0.0000000000000000  0.6193887185459985   T   T   T
  0.3333330000000032  0.6666669999999968  0.6492326965057558   T   T   T
  0.0000000000000000  0.0000000000000000  0.7087940445967007   T   T   T
  0.6666669999999968  0.3333330000000032  0.4999625700465415   T   T   T
  0.6666669999999968  0.3333330000000032  0.5895216243971859   T   T   T
  0.6666669999999968  0.3333330000000032  0.6790340128888843   T   T   T
  0.0000000000000000  0.0000000000000000  0.4851282407997815   T   T   T
  0.0000000000000000  0.0000000000000000  0.5746550845385840   T   T   T
  0.0000000000000000  0.0000000000000000  0.6641923033931860   T   T   T
  0.6666669999999968  0.3333330000000032  0.4553423440909867   T   T   T
  0.6666669999999968  0.3333330000000032  0.5447918698613137   T   T   T
  0.6666669999999968  0.3333330000000032  0.6343789073533728   T   T   T
  0.6666669999999968  0.3333330000000032  0.7243894990536788   T   T   T
  0.3333330000000032  0.6666669999999968  0.4250760835188672   T   T   T
  0.3333330000000032  0.6666669999999968  0.5149431460046685   T   T   T
  0.3333330000000032  0.6666669999999968  0.6045172756435946   T   T   T
  0.3333330000000032  0.6666669999999968  0.6939977611571848   T   T   T
  0.0000000000000000  0.0000000000000000  0.2331554469449628   T   T   T
  0.0000000000000000  0.0000000000000000  0.3145338176391803   T   T   T
  0.0000000000000000  0.0000000000000000  0.3958662889928917   T   T   T
  0.6666669999999968  0.3333330000000032  0.2875877602499060   T   T   T
  0.6666669999999968  0.3333330000000032  0.3689279960355236   T   T   T
  0.3333330000000032  0.6666669999999968  0.2605749378195839   T   T   T
  0.3333330000000032  0.6666669999999968  0.3417499975086571   T   T   T
 
  0.00000000E+00  0.00000000E+00  0.00000000E+00
  0.00000000E+00  0.00000000E+00  0.00000000E+00
  0.00000000E+00  0.00000000E+00  0.00000000E+00
  0.00000000E+00  0.00000000E+00  0.00000000E+00
  0.00000000E+00  0.00000000E+00  0.00000000E+00
  0.00000000E+00  0.00000000E+00  0.00000000E+00
  0.00000000E+00  0.00000000E+00  0.00000000E+00
  0.00000000E+00  0.00000000E+00  0.00000000E+00
  0.00000000E+00  0.00000000E+00  0.00000000E+00
  0.00000000E+00  0.00000000E+00  0.00000000E+00
  0.00000000E+00  0.00000000E+00  0.00000000E+00
  0.00000000E+00  0.00000000E+00  0.00000000E+00
  0.00000000E+00  0.00000000E+00  0.00000000E+00
  0.00000000E+00  0.00000000E+00  0.00000000E+00
  0.00000000E+00  0.00000000E+00  0.00000000E+00
  0.00000000E+00  0.00000000E+00  0.00000000E+00
  0.00000000E+00  0.00000000E+00  0.00000000E+00
  0.00000000E+00  0.00000000E+00  0.00000000E+00
  0.00000000E+00  0.00000000E+00  0.00000000E+00
  0.00000000E+00  0.00000000E+00  0.00000000E+00
  0.00000000E+00  0.00000000E+00  0.00000000E+00
  0.00000000E+00  0.00000000E+00  0.00000000E+00
  0.00000000E+00  0.00000000E+00  0.00000000E+00
  0.00000000E+00  0.00000000E+00  0.00000000E+00
  0.00000000E+00  0.00000000E+00  0.00000000E+00
  0.00000000E+00  0.00000000E+00  0.00000000E+00
  0.00000000E+00  0.00000000E+00  0.00000000E+00
  0.00000000E+00  0.00000000E+00  0.00000000E+00
