Layer (20)                              
   1.00000000000000     
     2.5851399813437097   -1.4925270234297661    0.0000000000000001
     0.0000000000000000    2.9850540468595321    0.0000000000000000
    -0.0000000000000006    0.0000000000000000   82.2074044781549702
   O    Mg   Al
    10    11     7
Selective dynamics
Direct
 -0.0000000000000000 -0.0000000000000000  0.4404369841255142   T   T   T
  0.3333330000000032  0.6666669999999968  0.4701720491857708   T   T   T
 -0.0000000000000000 -0.0000000000000000  0.5297987782881033   T   T   T
  0.3333330000000032  0.6666669999999968  0.5596597608136346   T   T   T
 -0.0000000000000000 -0.0000000000000000  0.6193887185460015   T   T   T
  0.3333330000000032  0.6666669999999968  0.6492326965057562   T   T   T
 -0.0000000000000000 -0.0000000000000000  0.7087940445966986   T   T   T
  0.6666669999999968  0.3333330000000032  0.4999625700465415   T   T   T
  0.6666669999999968  0.3333330000000032  0.5895216243971875   T   T   T
  0.6666669999999968  0.3333330000000032  0.6790340128888872   T   T   T
 -0.0000000000000000 -0.0000000000000000  0.4851282407997798   T   T   T
 -0.0000000000000000 -0.0000000000000000  0.5746550845385823   T   T   T
 -0.0000000000000000 -0.0000000000000000  0.6641923033931830   T   T   T
  0.6666669999999968  0.3333330000000032  0.4553423440909862   T   T   T
  0.6666669999999968  0.3333330000000032  0.5447918698613140   T   T   T
  0.6666669999999968  0.3333330000000032  0.6343789073533755   T   T   T
  0.6666669999999968  0.3333330000000032  0.7243894990536791   T   T   T
  0.3333330000000032  0.6666669999999968  0.4250760835188637   T   T   T
  0.3333330000000032  0.6666669999999968  0.5149431460046656   T   T   T
  0.3333330000000032  0.6666669999999968  0.6045172756435947   T   T   T
  0.3333330000000032  0.6666669999999968  0.6939977611571847   T   T   T
 -0.0000000000000000 -0.0000000000000000  0.2331554469449608   T   T   T
 -0.0000000000000000 -0.0000000000000000  0.3145338176391806   T   T   T
 -0.0000000000000000 -0.0000000000000000  0.3958662889928942   T   T   T
  0.6666669999999968  0.3333330000000032  0.2875877602499063   T   T   T
  0.6666669999999968  0.3333330000000032  0.3689279960355231   T   T   T
  0.3333330000000032  0.6666669999999968  0.2605749378195855   T   T   T
  0.3333330000000032  0.6666669999999968  0.3417499975086587   T   T   T
 
  0.00000000E+00  0.00000000E+00  0.00000000E+00
  0.00000000E+00  0.00000000E+00  0.00000000E+00
  0.00000000E+00  0.00000000E+00  0.00000000E+00
  0.00000000E+00  0.00000000E+00  0.00000000E+00
  0.00000000E+00  0.00000000E+00  0.00000000E+00
  0.00000000E+00  0.00000000E+00  0.00000000E+00
  0.00000000E+00  0.00000000E+00  0.00000000E+00
  0.00000000E+00  0.00000000E+00  0.00000000E+00
  0.00000000E+00  0.00000000E+00  0.00000000E+00
  0.00000000E+00  0.00000000E+00  0.00000000E+00
  0.00000000E+00  0.00000000E+00  0.00000000E+00
  0.00000000E+00  0.00000000E+00  0.00000000E+00
  0.00000000E+00  0.00000000E+00  0.00000000E+00
  0.00000000E+00  0.00000000E+00  0.00000000E+00
  0.00000000E+00  0.00000000E+00  0.00000000E+00
  0.00000000E+00  0.00000000E+00  0.00000000E+00
  0.00000000E+00  0.00000000E+00  0.00000000E+00
  0.00000000E+00  0.00000000E+00  0.00000000E+00
  0.00000000E+00  0.00000000E+00  0.00000000E+00
  0.00000000E+00  0.00000000E+00  0.00000000E+00
  0.00000000E+00  0.00000000E+00  0.00000000E+00
  0.00000000E+00  0.00000000E+00  0.00000000E+00
  0.00000000E+00  0.00000000E+00  0.00000000E+00
  0.00000000E+00  0.00000000E+00  0.00000000E+00
  0.00000000E+00  0.00000000E+00  0.00000000E+00
  0.00000000E+00  0.00000000E+00  0.00000000E+00
  0.00000000E+00  0.00000000E+00  0.00000000E+00
  0.00000000E+00  0.00000000E+00  0.00000000E+00
