Layer 
1.0 
2.514528 -1.451763 0.000000 
0.000000 2.903526 0.000000 
-0.000000 0.000000 44.065068 
O Mg Al 
9 10 7 
Selective Dynamics
Direct 
0.500000 0.500000 0.346707 T T T 
0.500000 0.500000 0.525523 T T T 
0.500000 0.500000 0.704338 T T T 
0.166667 0.833333 0.287102 T T T 
0.833333 0.166667 0.406312 T T T 
0.166667 0.833333 0.465917 T T T 
0.833333 0.166667 0.585128 T T T 
0.166667 0.833333 0.644733 T T T 
0.833333 0.166667 0.763943 T T T 
0.500000 0.500000 0.257299 T T T 
0.500000 0.500000 0.436115 T T T 
0.500000 0.500000 0.614930 T T T 
0.500000 0.500000 0.793746 T T T 
0.833333 0.166667 0.316904 T T T 
0.166667 0.833333 0.376510 T T T 
0.833333 0.166667 0.495720 T T T 
0.166667 0.833333 0.555325 T T T 
0.833333 0.166667 0.674535 T T T 
0.166667 0.833333 0.734141 T T T 
0.000000 0.000000 0.032452 T T T 
0.000000 0.000000 0.185587 T T T 
0.666667 0.333333 0.134542 T T T 
0.333333 0.666667 0.083497 T T T 
0.000000 0.000000 0.865458 T T T 
0.666667 0.333333 0.967548 T T T 
0.333333 0.666667 0.916503 T T T 
