Layer                                   
   1.00000000000000     
     2.5925900057573852   -1.4952752265876454    0.0518951647512091
     0.0013482762012733    2.9928857367913029   -0.0518951489622574
     0.4089676063014350   -0.7083524578609989   42.7068498215019900
   O    Mg   Al
     9    10     7
Selective dynamics
Direct
  0.5561977384050466  0.4438022616028334  0.3485956514245351   T   T   T
  0.5000237484097850  0.4999762515894689  0.5257965972914908   T   T   T
  0.4438506602176859  0.5561493397730202  0.7029725353363709   T   T   T
  0.2417941699085340  0.7582058300799481  0.2895710617921982   T   T   T
  0.8707219736268003  0.1292780263781595  0.4076731165086529   T   T   T
  0.1853439458145196  0.8146560541840735  0.4667309533744926   T   T   T
  0.8147029897359912  0.1852970102641722  0.5848569952955396   T   T   T
  0.1293256202575032  0.8706743797361233  0.6439106056455700   T   T   T
  0.7582422271391283  0.2417577728731144  0.7620012828277491   T   T   T
  0.5848811237314414  0.4151188762740938  0.2593615550535579   T   T   T
  0.5280130978433640  0.4719869021597409  0.4372063054948438   T   T   T
  0.4720367023303567  0.5279632976682009  0.6143688252846039   T   T   T
  0.4151423380057887  0.5848576619858483  0.7922182549648509   T   T   T
  0.8989589536266718  0.1010410463880152  0.3191039606284828   T   T   T
  0.2134342638821985  0.7865657361251627  0.3781560212235445   T   T   T
  0.8426802561713085  0.1573197438307379  0.4962619102434736   T   T   T
  0.1573717720739457  0.8426282279251163  0.5553127538836069   T   T   T
  0.7866110754377053  0.2133889245563974  0.6734195444170565   T   T   T
  0.1010735193431269  0.8989264806440337  0.7324890431763311   T   T   T
  0.9999055946367803  0.0000944053575069  0.0257864525013056   T   T   T
  0.9388011774559919  0.0611988225586594  0.1985185883354633   T   T   T
  0.6261498110919498  0.3738501888826413  0.1396035981276107   T   T   T
  0.3128031858269014  0.6871968141696951  0.0824484316192934   T   T   T
  0.0611694450819065  0.9388305549012466  0.8530562994623468   T   T   T
  0.6870416375522301  0.3129583624589324  0.9691247943911759   T   T   T
  0.3737229723933387  0.6262770276330720  0.9119698616958338   T   T   T
 
  0.00000000E+00  0.00000000E+00  0.00000000E+00
  0.00000000E+00  0.00000000E+00  0.00000000E+00
  0.00000000E+00  0.00000000E+00  0.00000000E+00
  0.00000000E+00  0.00000000E+00  0.00000000E+00
  0.00000000E+00  0.00000000E+00  0.00000000E+00
  0.00000000E+00  0.00000000E+00  0.00000000E+00
  0.00000000E+00  0.00000000E+00  0.00000000E+00
  0.00000000E+00  0.00000000E+00  0.00000000E+00
  0.00000000E+00  0.00000000E+00  0.00000000E+00
  0.00000000E+00  0.00000000E+00  0.00000000E+00
  0.00000000E+00  0.00000000E+00  0.00000000E+00
  0.00000000E+00  0.00000000E+00  0.00000000E+00
  0.00000000E+00  0.00000000E+00  0.00000000E+00
  0.00000000E+00  0.00000000E+00  0.00000000E+00
  0.00000000E+00  0.00000000E+00  0.00000000E+00
  0.00000000E+00  0.00000000E+00  0.00000000E+00
  0.00000000E+00  0.00000000E+00  0.00000000E+00
  0.00000000E+00  0.00000000E+00  0.00000000E+00
  0.00000000E+00  0.00000000E+00  0.00000000E+00
  0.00000000E+00  0.00000000E+00  0.00000000E+00
  0.00000000E+00  0.00000000E+00  0.00000000E+00
  0.00000000E+00  0.00000000E+00  0.00000000E+00
  0.00000000E+00  0.00000000E+00  0.00000000E+00
  0.00000000E+00  0.00000000E+00  0.00000000E+00
  0.00000000E+00  0.00000000E+00  0.00000000E+00
  0.00000000E+00  0.00000000E+00  0.00000000E+00
