Layer                                   
   1.00000000000000     
     2.5925900057573852   -1.4952752265876454    0.0518951647512091
     0.0013482762012733    2.9928857367913029   -0.0518951489622574
     0.4089676063014350   -0.7083524578609989   42.7068498215019900
   O    Mg   Al
     9    10     7
Selective dynamics
Direct
  0.5561843962344192  0.4438156037734604  0.3486193734519931   T   T   T
  0.5000294868054459  0.4999705131938080  0.5257821026003325   T   T   T
  0.4438577880493724  0.5561422119413340  0.7029721937008684   T   T   T
  0.2417792998859402  0.7582207001025418  0.2895900883836503   T   T   T
  0.8707195094153224  0.1292804905896373  0.4076735959392149   T   T   T
  0.1853428190943281  0.8146571809042654  0.4667296625309639   T   T   T
  0.8147131437688541  0.1852868562313091  0.5848342046394630   T   T   T
  0.1293346292140492  0.8706653707795773  0.6438954677528591   T   T   T
  0.7582479560427678  0.2417520439694745  0.7620120683962606   T   T   T
  0.5848774712055324  0.4151225288000029  0.2593451974587660   T   T   T
  0.5280073913555856  0.4719926086475192  0.4372024237323781   T   T   T
  0.4720364464569217  0.5279635535416362  0.6143874605962542   T   T   T
  0.4151455158890301  0.5848544841026069  0.7922346654732134   T   T   T
  0.8989639926352043  0.1010360073794822  0.3190607079291566   T   T   T
  0.2134279358636422  0.7865720641437191  0.3781518763827396   T   T   T
  0.8426776131311343  0.1573223868709122  0.4962627799841254   T   T   T
  0.1573626039370352  0.8426373960620273  0.5553436768375416   T   T   T
  0.7866124949192950  0.2133875050748071  0.6734346051262534   T   T   T
  0.1010864517671623  0.8989135482199987  0.7324757555163934   T   T   T
  0.9999054690634032  0.0000945309308840  0.0257862673668140   T   T   T
  0.9387934637453634  0.0612065362692878  0.1985162167633856   T   T   T
  0.6261481569223565  0.3738518430522345  0.1395737542993645   T   T   T
  0.3127967165388003  0.6872032834577959  0.0824594293829405   T   T   T
  0.0611773107172414  0.9388226892659115  0.8530578511892548   T   T   T
  0.6870476490797051  0.3129523509314574  0.9691137677464383   T   T   T
  0.3737242882620928  0.6262757117643181  0.9119998068193607   T   T   T
 
  0.00000000E+00  0.00000000E+00  0.00000000E+00
  0.00000000E+00  0.00000000E+00  0.00000000E+00
  0.00000000E+00  0.00000000E+00  0.00000000E+00
  0.00000000E+00  0.00000000E+00  0.00000000E+00
  0.00000000E+00  0.00000000E+00  0.00000000E+00
  0.00000000E+00  0.00000000E+00  0.00000000E+00
  0.00000000E+00  0.00000000E+00  0.00000000E+00
  0.00000000E+00  0.00000000E+00  0.00000000E+00
  0.00000000E+00  0.00000000E+00  0.00000000E+00
  0.00000000E+00  0.00000000E+00  0.00000000E+00
  0.00000000E+00  0.00000000E+00  0.00000000E+00
  0.00000000E+00  0.00000000E+00  0.00000000E+00
  0.00000000E+00  0.00000000E+00  0.00000000E+00
  0.00000000E+00  0.00000000E+00  0.00000000E+00
  0.00000000E+00  0.00000000E+00  0.00000000E+00
  0.00000000E+00  0.00000000E+00  0.00000000E+00
  0.00000000E+00  0.00000000E+00  0.00000000E+00
  0.00000000E+00  0.00000000E+00  0.00000000E+00
  0.00000000E+00  0.00000000E+00  0.00000000E+00
  0.00000000E+00  0.00000000E+00  0.00000000E+00
  0.00000000E+00  0.00000000E+00  0.00000000E+00
  0.00000000E+00  0.00000000E+00  0.00000000E+00
  0.00000000E+00  0.00000000E+00  0.00000000E+00
  0.00000000E+00  0.00000000E+00  0.00000000E+00
  0.00000000E+00  0.00000000E+00  0.00000000E+00
  0.00000000E+00  0.00000000E+00  0.00000000E+00
