Layer                                   
   1.00000000000000     
     2.5922013181189856   -1.4966076734688392    0.0000000000000000
     0.0000000000000000    2.9932153469376783    0.0000000000000000
    -0.0000000000000002    0.0000000000000000   49.2703998811216834
   O    Mg   Al
    10    11     7
Selective dynamics
Direct
  0.0000000000000000 -0.0000000000000000  0.2995328834924834   T   T   T
  0.3333330000000032  0.6666669999999968  0.3493818049159189   T   T   T
  0.0000000000000000  0.0000000000000000  0.4493300505349617   T   T   T
  0.3333330000000032  0.6666669999999968  0.4993350182815156   T   T   T
 -0.0000000000000000 -0.0000000000000000  0.5993071404609640   T   T   T
  0.3333330000000032  0.6666669999999968  0.6492619726955497   T   T   T
 -0.0000000000000000  0.0000000000000000  0.7491123086600293   T   T   T
  0.6666669999999968  0.3333330000000032  0.3993782633838788   T   T   T
  0.6666669999999968  0.3333330000000032  0.5493005293320347   T   T   T
  0.6666669999999968  0.3333330000000032  0.6992614150383817   T   T   T
 -0.0000000000000000 -0.0000000000000000  0.3743877547653343   T   T   T
  0.0000000000000000  0.0000000000000000  0.5243182338375902   T   T   T
  0.0000000000000000  0.0000000000000000  0.6742535157313256   T   T   T
  0.6666669999999968  0.3333330000000032  0.3243897371432583   T   T   T
  0.6666669999999968  0.3333330000000032  0.4743296492828077   T   T   T
  0.6666669999999968  0.3333330000000032  0.6242795358561211   T   T   T
  0.6666669999999968  0.3333330000000032  0.7750380983971047   T   T   T
  0.3333330000000032  0.6666669999999968  0.2736072356465723   T   T   T
  0.3333330000000032  0.6666669999999968  0.4243598403895888   T   T   T
  0.3333330000000032  0.6666669999999968  0.5743074885591497   T   T   T
  0.3333330000000032  0.6666669999999968  0.7242535318530147   T   T   T
  0.0000000000000000  0.0000000000000000  0.0243195811998618   T   T   T
  0.0000000000000000  0.0000000000000000  0.2249157174995980   T   T   T
  0.6666669999999968  0.3333330000000032  0.1795978503167624   T   T   T
  0.3333330000000032  0.6666669999999968  0.0704190432422893   T   T   T
  0.0000000000000000  0.0000000000000000  0.8237305398254128   T   T   T
  0.6666669999999968  0.3333330000000032  0.9782192256849738   T   T   T
  0.3333330000000032  0.6666669999999968  0.8690430339735453   T   T   T
 
  0.00000000E+00  0.00000000E+00  0.00000000E+00
  0.00000000E+00  0.00000000E+00  0.00000000E+00
  0.00000000E+00  0.00000000E+00  0.00000000E+00
  0.00000000E+00  0.00000000E+00  0.00000000E+00
  0.00000000E+00  0.00000000E+00  0.00000000E+00
  0.00000000E+00  0.00000000E+00  0.00000000E+00
  0.00000000E+00  0.00000000E+00  0.00000000E+00
  0.00000000E+00  0.00000000E+00  0.00000000E+00
  0.00000000E+00  0.00000000E+00  0.00000000E+00
  0.00000000E+00  0.00000000E+00  0.00000000E+00
  0.00000000E+00  0.00000000E+00  0.00000000E+00
  0.00000000E+00  0.00000000E+00  0.00000000E+00
  0.00000000E+00  0.00000000E+00  0.00000000E+00
  0.00000000E+00  0.00000000E+00  0.00000000E+00
  0.00000000E+00  0.00000000E+00  0.00000000E+00
  0.00000000E+00  0.00000000E+00  0.00000000E+00
  0.00000000E+00  0.00000000E+00  0.00000000E+00
  0.00000000E+00  0.00000000E+00  0.00000000E+00
  0.00000000E+00  0.00000000E+00  0.00000000E+00
  0.00000000E+00  0.00000000E+00  0.00000000E+00
  0.00000000E+00  0.00000000E+00  0.00000000E+00
  0.00000000E+00  0.00000000E+00  0.00000000E+00
  0.00000000E+00  0.00000000E+00  0.00000000E+00
  0.00000000E+00  0.00000000E+00  0.00000000E+00
  0.00000000E+00  0.00000000E+00  0.00000000E+00
  0.00000000E+00  0.00000000E+00  0.00000000E+00
  0.00000000E+00  0.00000000E+00  0.00000000E+00
  0.00000000E+00  0.00000000E+00  0.00000000E+00
