Layer                                   
   1.00000000000000     
     2.5922013181189856   -1.4966076734688392    0.0000000000000000
     0.0000000000000000    2.9932153469376783    0.0000000000000000
-0.0000000000000002 0.0000000000000000 49.2703998811216865
   O    Mg   Al
    10    11     7
Selective dynamics
Direct
  0.0000000000000000  0.0000000000000000  0.2974213888895190   T   T   T
  0.3333330000000032  0.6666669999999968  0.3477379375360022   T   T   T
 -0.0000000000000000  0.0000000000000000  0.4486522717717195   T   T   T
  0.3333330000000032  0.6666669999999968  0.4990930490609839   T   T   T
  0.0000000000000000  0.0000000000000000  0.5999849192242066   T   T   T
  0.3333330000000032  0.6666669999999968  0.6504300719127168   T   T   T
 -0.0000000000000000 -0.0000000000000000  0.7512238032629946   T   T   T
  0.6666669999999968  0.3333330000000032  0.3982101641667118   T   T   T
  0.6666669999999968  0.3333330000000032  0.5495424985525664   T   T   T
  0.6666669999999968  0.3333330000000032  0.7009052824182984   T   T   T
  0.0000000000000000  0.0000000000000000  0.3729758076294581   T   T   T
  0.0000000000000000  0.0000000000000000  0.5243182338375902   T   T   T
  0.0000000000000000  0.0000000000000000  0.6756654628672020   T   T   T
  0.6666669999999968  0.3333330000000032  0.3224999642291616   T   T   T
  0.6666669999999968  0.3333330000000032  0.4738708624369070   T   T   T
  0.6666669999999968  0.3333330000000032  0.6252210898105687   T   T   T
  0.6666669999999968  0.3333330000000032  0.7774354699866892   T   T   T
  0.3333330000000032  0.6666669999999968  0.2712098640569871   T   T   T
  0.3333330000000032  0.6666669999999968  0.4234182864351412   T   T   T
  0.3333330000000032  0.6666669999999968  0.5747662754050508   T   T   T
  0.3333330000000032  0.6666669999999968  0.7261433047671113   T   T   T
  0.0000000000000000  0.0000000000000000  0.0243195811998618   T   T   T
  0.0000000000000000  0.0000000000000000  0.2220020943260552   T   T   T
  0.6666669999999968  0.3333330000000032  0.1762604601317937   T   T   T
  0.3333330000000032  0.6666669999999968  0.0708167442895779   T   T   T
  0.0000000000000000  0.0000000000000000  0.8266441629989554   T   T   T
  0.6666669999999968  0.3333330000000032  0.9778215246376849   T   T   T
  0.3333330000000032  0.6666669999999968  0.8723804241585135   T   T   T
 
  0.00000000E+00  0.00000000E+00  0.00000000E+00
  0.00000000E+00  0.00000000E+00  0.00000000E+00
  0.00000000E+00  0.00000000E+00  0.00000000E+00
  0.00000000E+00  0.00000000E+00  0.00000000E+00
  0.00000000E+00  0.00000000E+00  0.00000000E+00
  0.00000000E+00  0.00000000E+00  0.00000000E+00
  0.00000000E+00  0.00000000E+00  0.00000000E+00
  0.00000000E+00  0.00000000E+00  0.00000000E+00
  0.00000000E+00  0.00000000E+00  0.00000000E+00
  0.00000000E+00  0.00000000E+00  0.00000000E+00
  0.00000000E+00  0.00000000E+00  0.00000000E+00
  0.00000000E+00  0.00000000E+00  0.00000000E+00
  0.00000000E+00  0.00000000E+00  0.00000000E+00
  0.00000000E+00  0.00000000E+00  0.00000000E+00
  0.00000000E+00  0.00000000E+00  0.00000000E+00
  0.00000000E+00  0.00000000E+00  0.00000000E+00
  0.00000000E+00  0.00000000E+00  0.00000000E+00
  0.00000000E+00  0.00000000E+00  0.00000000E+00
  0.00000000E+00  0.00000000E+00  0.00000000E+00
  0.00000000E+00  0.00000000E+00  0.00000000E+00
  0.00000000E+00  0.00000000E+00  0.00000000E+00
  0.00000000E+00  0.00000000E+00  0.00000000E+00
  0.00000000E+00  0.00000000E+00  0.00000000E+00
  0.00000000E+00  0.00000000E+00  0.00000000E+00
  0.00000000E+00  0.00000000E+00  0.00000000E+00
  0.00000000E+00  0.00000000E+00  0.00000000E+00
  0.00000000E+00  0.00000000E+00  0.00000000E+00
  0.00000000E+00  0.00000000E+00  0.00000000E+00
