Layer                                   
   1.00000000000000     
     2.5922013181189856   -1.4966076734688392    0.0000000000000000
     0.0000000000000000    2.9932153469376783    0.0000000000000000
-0.0000000000000002 0.0000000000000000 44.5575790229274383
   O    Mg   Al
    10    11     7
Selective dynamics
Direct
  0.0000000000000000  0.0000000000000000  0.2696005912346565   T   T   T
  0.3333330000000032  0.6666669999999968  0.3262077452555077   T   T   T
  0.0000000000000000  0.0000000000000000  0.4394015584639167   T   T   T
  0.3333330000000032  0.6666669999999968  0.4959954332774695   T   T   T
  0.0000000000000000  0.0000000000000000  0.6092402501681539   T   T   T
  0.3333330000000032  0.6666669999999968  0.6658141677645444   T   T   T
  0.0000000000000000  0.0000000000000000  0.7790378908501613   T   T   T
  0.6666669999999968  0.3333330000000032  0.3828264688197408   T   T   T
  0.6666669999999968  0.3333330000000032  0.5526455127669336   T   T   T
  0.6666669999999968  0.3333330000000032  0.7224310838617041   T   T   T
  0.0000000000000000  0.0000000000000000  0.3545269050720971   T   T   T
  0.0000000000000000  0.0000000000000000  0.5243195924133712   T   T   T
  0.0000000000000000  0.0000000000000000  0.6941168367152790   T   T   T
  0.6666669999999968  0.3333330000000032  0.2978873720153747   T   T   T
  0.6666669999999968  0.3333330000000032  0.4676980509483745   T   T   T
  0.6666669999999968  0.3333330000000032  0.6375182373618362   T   T   T
  0.6666669999999968  0.3333330000000032  0.8083128980140314   T   T   T
  0.3333330000000032  0.6666669999999968  0.2403218338538952   T   T   T
  0.3333330000000032  0.6666669999999968  0.4111222893782148   T   T   T
  0.3333330000000032  0.6666669999999968  0.5809399071363827   T   T   T
  0.3333330000000032  0.6666669999999968  0.7507515375280452   T   T   T
  0.0000000000000000  0.0000000000000000  0.0243241166551450   T   T   T
  0.0000000000000000  0.0000000000000000  0.1831042221368016   T   T   T
  0.6666669999999968  0.3333330000000032  0.1301420344666152   T   T   T
  0.3333330000000032  0.6666669999999968  0.0770868005962703   T   T   T
  0.0000000000000000  0.0000000000000000  0.8655296774195279   T   T   T
  0.6666669999999968  0.3333330000000032  0.9715623436315529   T   T   T
  0.3333330000000032  0.6666669999999968  0.9185056421944313   T   T   T
 
  0.00000000E+00  0.00000000E+00  0.00000000E+00
  0.00000000E+00  0.00000000E+00  0.00000000E+00
  0.00000000E+00  0.00000000E+00  0.00000000E+00
  0.00000000E+00  0.00000000E+00  0.00000000E+00
  0.00000000E+00  0.00000000E+00  0.00000000E+00
  0.00000000E+00  0.00000000E+00  0.00000000E+00
  0.00000000E+00  0.00000000E+00  0.00000000E+00
  0.00000000E+00  0.00000000E+00  0.00000000E+00
  0.00000000E+00  0.00000000E+00  0.00000000E+00
  0.00000000E+00  0.00000000E+00  0.00000000E+00
  0.00000000E+00  0.00000000E+00  0.00000000E+00
  0.00000000E+00  0.00000000E+00  0.00000000E+00
  0.00000000E+00  0.00000000E+00  0.00000000E+00
  0.00000000E+00  0.00000000E+00  0.00000000E+00
  0.00000000E+00  0.00000000E+00  0.00000000E+00
  0.00000000E+00  0.00000000E+00  0.00000000E+00
  0.00000000E+00  0.00000000E+00  0.00000000E+00
  0.00000000E+00  0.00000000E+00  0.00000000E+00
  0.00000000E+00  0.00000000E+00  0.00000000E+00
  0.00000000E+00  0.00000000E+00  0.00000000E+00
  0.00000000E+00  0.00000000E+00  0.00000000E+00
  0.00000000E+00  0.00000000E+00  0.00000000E+00
  0.00000000E+00  0.00000000E+00  0.00000000E+00
  0.00000000E+00  0.00000000E+00  0.00000000E+00
  0.00000000E+00  0.00000000E+00  0.00000000E+00
  0.00000000E+00  0.00000000E+00  0.00000000E+00
  0.00000000E+00  0.00000000E+00  0.00000000E+00
  0.00000000E+00  0.00000000E+00  0.00000000E+00
