Layer                                   
   1.00000000000000     
     2.5925900057573852   -1.4952752265876454    0.0518951647512091
     0.0013482762012733    2.9928857367913029   -0.0518951489622574
     0.4089676063014350   -0.7083524578609989   45.9300082985964764
   O    Mg   Al
     9    10     7
Selective dynamics
Direct
  0.5538468615859811  0.4461531384218991  0.3651046901667357   T   T   T
  0.5000180214069451  0.4999819785923091  0.5257725678215734   T   T   T
  0.4461936533582235  0.5538063466324831  0.6864350030754066   T   T   T
  0.2383995051919421  0.7616004947965401  0.3116381532221896   T   T   T
  0.8692470201046207  0.1307529799003392  0.4186735498064113   T   T   T
  0.1846354861178595  0.8153645138807268  0.4722273289251227   T   T   T
  0.8153990967044906  0.1846009032956732  0.5793231595718450   T   T   T
  0.1307939526971267  0.8692060472964999  0.6328611518515765   T   T   T
  0.7616416581136516  0.2383583418985907  0.7398946068266633   T   T   T
  0.5809085254153812  0.4190914745901552  0.2841643201821913   T   T   T
  0.5269447902695961  0.4730552097335020  0.4454549123672908   T   T   T
  0.4730917900565389  0.5269082099420185  0.6060919140656370   T   T   T
  0.4191375274542579  0.5808624725373854  0.7673591143477260   T   T   T
  0.8961419867146360  0.1038580133000447  0.3383109774329642   T   T   T
  0.2115461719256061  0.7884538280817556  0.3918984320042685   T   T   T
  0.8423217099831904  0.1576782900188627  0.4990103608740551   T   T   T
  0.1577091940665451  0.8422908059325173  0.5525528868114560   T   T   T
  0.7884929828593511  0.2115070171347506  0.6596454112345050   T   T   T
  0.1039056772058521  0.8960943227813087  0.7132052281228172   T   T   T
  0.9999170356498300  0.0000829643444568  0.0258695892971439   T   T   T
  0.9320342303586254  0.0679657696560261  0.2313457852990308   T   T   T
  0.6338838039847541  0.3661161959898374  0.1231517541259753   T   T   T
  0.3171019688615771  0.6828980311350119  0.0741084418249090   T   T   T
  0.0680069812376220  0.9319930187455309  0.8201888119570125   T   T   T
  0.6827323266395050  0.3172676733716577  0.9776335576745206   T   T   T
  0.3659480420363288  0.6340519579900818  0.9285932911109057   T   T   T
 
  0.00000000E+00  0.00000000E+00  0.00000000E+00
  0.00000000E+00  0.00000000E+00  0.00000000E+00
  0.00000000E+00  0.00000000E+00  0.00000000E+00
  0.00000000E+00  0.00000000E+00  0.00000000E+00
  0.00000000E+00  0.00000000E+00  0.00000000E+00
  0.00000000E+00  0.00000000E+00  0.00000000E+00
  0.00000000E+00  0.00000000E+00  0.00000000E+00
  0.00000000E+00  0.00000000E+00  0.00000000E+00
  0.00000000E+00  0.00000000E+00  0.00000000E+00
  0.00000000E+00  0.00000000E+00  0.00000000E+00
  0.00000000E+00  0.00000000E+00  0.00000000E+00
  0.00000000E+00  0.00000000E+00  0.00000000E+00
  0.00000000E+00  0.00000000E+00  0.00000000E+00
  0.00000000E+00  0.00000000E+00  0.00000000E+00
  0.00000000E+00  0.00000000E+00  0.00000000E+00
  0.00000000E+00  0.00000000E+00  0.00000000E+00
  0.00000000E+00  0.00000000E+00  0.00000000E+00
  0.00000000E+00  0.00000000E+00  0.00000000E+00
  0.00000000E+00  0.00000000E+00  0.00000000E+00
  0.00000000E+00  0.00000000E+00  0.00000000E+00
  0.00000000E+00  0.00000000E+00  0.00000000E+00
  0.00000000E+00  0.00000000E+00  0.00000000E+00
  0.00000000E+00  0.00000000E+00  0.00000000E+00
  0.00000000E+00  0.00000000E+00  0.00000000E+00
  0.00000000E+00  0.00000000E+00  0.00000000E+00
  0.00000000E+00  0.00000000E+00  0.00000000E+00
