OT hollow                               
   1.00000000000000     
     2.5811541392653616   -1.5324138013876256    0.0027477723695831
    -0.0365325771383558    3.0015513008946511   -0.0027477716826384
     0.0222045901268964   -0.0384594709818474   44.0498347616077552
   O    Mg   Al
    10     9     7
Selective dynamics
Direct
  0.5062744226660664  0.4937255773081976  0.2741124485363742   T   T   T
  0.5068089299110086  0.4931910700881176  0.4419099335641316   T   T   T
  0.4931961722378415  0.5068038277631248  0.6100973780320391   T   T   T
  0.4937255972379325  0.5062744027917112  0.7778824168684751   T   T   T
  0.8488232420512547  0.1511767579456329  0.3298670454817118   T   T   T
  0.1778794987897422  0.8221205012094053  0.3858824148774560   T   T   T
  0.8355871589379144  0.1644128410624979  0.4979635019683693   T   T   T
  0.1644170690122334  0.8355829309874256  0.5540464133897653   T   T   T
  0.8221257237156220  0.1778742762857068  0.6661210331693849   T   T   T
  0.1511779612061460  0.8488220387985652  0.7221329766678544   T   T   T
  0.5133271075110885  0.4866728924952284  0.3578748910752949   T   T   T
  0.5000019844899714  0.4999980155100215  0.5260048566589953   T   T   T
  0.4866750032496772  0.5133249967446738  0.6941253008753940   T   T   T
  0.1852204990584633  0.8147795011172256  0.3018757228856856   T   T   T
  0.8423506965648347  0.1576493034288916  0.4138904670155015   T   T   T
  0.1711886929734380  0.8288113070262565  0.4699244890237429   T   T   T
  0.8288153185796070  0.1711846814206489  0.5820834637909917   T   T   T
  0.1576539345136881  0.8423460654922307  0.6381132207952426   T   T   T
  0.8147775814326157  0.1852224183884268  0.7501199101058361   T   T   T
  0.9999859986901882  0.0000140012765728  0.0263211812132608   T   T   T
  0.9950748525950437  0.0049251472631886  0.2410159820929559   T   T   T
  0.6917516133829936  0.3082483866427213  0.1907893855843190   T   T   T
  0.3292658256611680  0.6707341743349099  0.0782424441212658   T   T   T
  0.0049324680234256  0.9950675321105260  0.8109762721034870   T   T   T
  0.6707128847328833  0.3292871153065020  0.9744047967645066   T   T   T
  0.3082497627751671  0.6917502372015696  0.8611890533379771   T   T   T
 
  0.00000000E+00  0.00000000E+00  0.00000000E+00
  0.00000000E+00  0.00000000E+00  0.00000000E+00
  0.00000000E+00  0.00000000E+00  0.00000000E+00
  0.00000000E+00  0.00000000E+00  0.00000000E+00
  0.00000000E+00  0.00000000E+00  0.00000000E+00
  0.00000000E+00  0.00000000E+00  0.00000000E+00
  0.00000000E+00  0.00000000E+00  0.00000000E+00
  0.00000000E+00  0.00000000E+00  0.00000000E+00
  0.00000000E+00  0.00000000E+00  0.00000000E+00
  0.00000000E+00  0.00000000E+00  0.00000000E+00
  0.00000000E+00  0.00000000E+00  0.00000000E+00
  0.00000000E+00  0.00000000E+00  0.00000000E+00
  0.00000000E+00  0.00000000E+00  0.00000000E+00
  0.00000000E+00  0.00000000E+00  0.00000000E+00
  0.00000000E+00  0.00000000E+00  0.00000000E+00
  0.00000000E+00  0.00000000E+00  0.00000000E+00
  0.00000000E+00  0.00000000E+00  0.00000000E+00
  0.00000000E+00  0.00000000E+00  0.00000000E+00
  0.00000000E+00  0.00000000E+00  0.00000000E+00
  0.00000000E+00  0.00000000E+00  0.00000000E+00
  0.00000000E+00  0.00000000E+00  0.00000000E+00
  0.00000000E+00  0.00000000E+00  0.00000000E+00
  0.00000000E+00  0.00000000E+00  0.00000000E+00
  0.00000000E+00  0.00000000E+00  0.00000000E+00
  0.00000000E+00  0.00000000E+00  0.00000000E+00
  0.00000000E+00  0.00000000E+00  0.00000000E+00
