Layer                                   
   1.00000000000000     
     2.6004576726853683   -1.5013744842201957    0.0000000000000000
     0.0000000000000000    3.0027489684403914    0.0000000000000000
     0.0000000000000007   -0.0000000000000001   40.4696947879092050
   O    Mg   Al
    10     9     7
Selective dynamics
Direct
 -0.0000000000000000  0.0000000000000000  0.2486533127134690   T   T   T
  0.3333330000000032  0.6666669999999968  0.3084462676354625   T   T   T
 -0.0000000000000000  0.0000000000000000  0.4327858807214181   T   T   T
  0.3333330000000032  0.6666669999999968  0.4949520403583892   T   T   T
 -0.0000000000000000  0.0000000000000000  0.6192860123414620   T   T   T
  0.3333330000000032  0.6666669999999968  0.6814621828141684   T   T   T
 -0.0000000000000000  0.0000000000000000  0.8034232486017524   T   T   T
  0.6666669999999968  0.3333330000000032  0.3706149529816840   T   T   T
  0.6666669999999968  0.3333330000000032  0.5571168956099478   T   T   T
  0.6666669999999968  0.3333330000000032  0.7436352703979917   T   T   T
 -0.0000000000000000  0.0000000000000000  0.3395113886057679   T   T   T
 -0.0000000000000000  0.0000000000000000  0.5260396729366436   T   T   T
 -0.0000000000000000  0.0000000000000000  0.7125588238564846   T   T   T
  0.6666669999999968  0.3333330000000032  0.2772644532919289   T   T   T
  0.6666669999999968  0.3333330000000032  0.4638614389905716   T   T   T
  0.6666669999999968  0.3333330000000032  0.6503854766108185   T   T   T
  0.3333330000000032  0.6666669999999968  0.4016884737600958   T   T   T
  0.3333330000000032  0.6666669999999968  0.5882151522582308   T   T   T
  0.3333330000000032  0.6666669999999968  0.7748052560468628   T   T   T
 -0.0000000000000000  0.0000000000000000  0.0260376060942591   T   T   T
 -0.0000000000000000  0.0000000000000000  0.2056973270569629   T   T   T
  0.6666669999999968  0.3333330000000032  0.1468379963139852   T   T   T
  0.3333330000000032  0.6666669999999968  0.0859787040299831   T   T   T
 -0.0000000000000000  0.0000000000000000  0.8463769188670169   T   T   T
  0.6666669999999968  0.3333330000000032  0.9660958959502374   T   T   T
  0.3333330000000032  0.6666669999999968  0.9052363511544035   T   T   T
 
  0.00000000E+00  0.00000000E+00  0.00000000E+00
  0.00000000E+00  0.00000000E+00  0.00000000E+00
  0.00000000E+00  0.00000000E+00  0.00000000E+00
  0.00000000E+00  0.00000000E+00  0.00000000E+00
  0.00000000E+00  0.00000000E+00  0.00000000E+00
  0.00000000E+00  0.00000000E+00  0.00000000E+00
  0.00000000E+00  0.00000000E+00  0.00000000E+00
  0.00000000E+00  0.00000000E+00  0.00000000E+00
  0.00000000E+00  0.00000000E+00  0.00000000E+00
  0.00000000E+00  0.00000000E+00  0.00000000E+00
  0.00000000E+00  0.00000000E+00  0.00000000E+00
  0.00000000E+00  0.00000000E+00  0.00000000E+00
  0.00000000E+00  0.00000000E+00  0.00000000E+00
  0.00000000E+00  0.00000000E+00  0.00000000E+00
  0.00000000E+00  0.00000000E+00  0.00000000E+00
  0.00000000E+00  0.00000000E+00  0.00000000E+00
  0.00000000E+00  0.00000000E+00  0.00000000E+00
  0.00000000E+00  0.00000000E+00  0.00000000E+00
  0.00000000E+00  0.00000000E+00  0.00000000E+00
  0.00000000E+00  0.00000000E+00  0.00000000E+00
  0.00000000E+00  0.00000000E+00  0.00000000E+00
  0.00000000E+00  0.00000000E+00  0.00000000E+00
  0.00000000E+00  0.00000000E+00  0.00000000E+00
  0.00000000E+00  0.00000000E+00  0.00000000E+00
  0.00000000E+00  0.00000000E+00  0.00000000E+00
  0.00000000E+00  0.00000000E+00  0.00000000E+00
