Layer                                   
   1.00000000000000     
     2.5922013181189856   -1.4966076734688392    0.0000000000000000
     0.0000000000000000    2.9932153469376783    0.0000000000000000
-0.0000000000000002 0.0000000000000000 44.1291407630915975
   O    Mg   Al
    10    11     7
Selective dynamics
Direct
  0.0000000000000000 -0.0000000000000000  0.2685814420073740   T   T   T
  0.3333330000000032  0.6666669999999968  0.3253569470448909   T   T   T
  0.0000000000000000 -0.0000000000000000  0.4390534087300866   T   T   T
  0.3333330000000032  0.6666669999999968  0.4958986638574818   T   T   T
  0.0000000000000000 -0.0000000000000000  0.6095713844359851   T   T   T
  0.3333330000000032  0.6666669999999968  0.6664461229770897   T   T   T
  0.0000000000000000 -0.0000000000000000  0.7800740838521640   T   T   T
  0.6666669999999968  0.3333330000000032  0.3821909826976428   T   T   T
  0.6666669999999968  0.3333330000000032  0.5527233767369617   T   T   T
  0.6666669999999968  0.3333330000000032  0.7232963349594720   T   T   T
  0.0000000000000000 -0.0000000000000000  0.3537560055374130   T   T   T
  0.0000000000000000 -0.0000000000000000  0.5243200894708231   T   T   T
  0.0000000000000000 -0.0000000000000000  0.6948791469113139   T   T   T
  0.6666669999999968  0.3333330000000032  0.2969447975805294   T   T   T
  0.6666669999999968  0.3333330000000032  0.4674734747827993   T   T   T
  0.6666669999999968  0.3333330000000032  0.6380227863409342   T   T   T
  0.6666669999999968  0.3333330000000032  0.8094553267081636   T   T   T
  0.3333330000000032  0.6666669999999968  0.2391922335458541   T   T   T
  0.3333330000000032  0.6666669999999968  0.4106111958207061   T   T   T
  0.3333330000000032  0.6666669999999968  0.5811630112104047   T   T   T
  0.3333330000000032  0.6666669999999968  0.7516940698203661   T   T   T
  0.0000000000000000 -0.0000000000000000  0.0243227085275231   T   T   T
  0.0000000000000000 -0.0000000000000000  0.1824164716075343   T   T   T
  0.6666669999999968  0.3333330000000032  0.1299802309676714   T   T   T
  0.3333330000000032  0.6666669999999968  0.0770769148855013   T   T   T
  0.0000000000000000 -0.0000000000000000  0.8662299013610233   T   T   T
  0.6666669999999968  0.3333330000000032  0.9715678522316391   T   T   T
  0.3333330000000032  0.6666669999999968  0.9186720353906936   T   T   T
 
  0.00000000E+00  0.00000000E+00  0.00000000E+00
  0.00000000E+00  0.00000000E+00  0.00000000E+00
  0.00000000E+00  0.00000000E+00  0.00000000E+00
  0.00000000E+00  0.00000000E+00  0.00000000E+00
  0.00000000E+00  0.00000000E+00  0.00000000E+00
  0.00000000E+00  0.00000000E+00  0.00000000E+00
  0.00000000E+00  0.00000000E+00  0.00000000E+00
  0.00000000E+00  0.00000000E+00  0.00000000E+00
  0.00000000E+00  0.00000000E+00  0.00000000E+00
  0.00000000E+00  0.00000000E+00  0.00000000E+00
  0.00000000E+00  0.00000000E+00  0.00000000E+00
  0.00000000E+00  0.00000000E+00  0.00000000E+00
  0.00000000E+00  0.00000000E+00  0.00000000E+00
  0.00000000E+00  0.00000000E+00  0.00000000E+00
  0.00000000E+00  0.00000000E+00  0.00000000E+00
  0.00000000E+00  0.00000000E+00  0.00000000E+00
  0.00000000E+00  0.00000000E+00  0.00000000E+00
  0.00000000E+00  0.00000000E+00  0.00000000E+00
  0.00000000E+00  0.00000000E+00  0.00000000E+00
  0.00000000E+00  0.00000000E+00  0.00000000E+00
  0.00000000E+00  0.00000000E+00  0.00000000E+00
  0.00000000E+00  0.00000000E+00  0.00000000E+00
  0.00000000E+00  0.00000000E+00  0.00000000E+00
  0.00000000E+00  0.00000000E+00  0.00000000E+00
  0.00000000E+00  0.00000000E+00  0.00000000E+00
  0.00000000E+00  0.00000000E+00  0.00000000E+00
  0.00000000E+00  0.00000000E+00  0.00000000E+00
  0.00000000E+00  0.00000000E+00  0.00000000E+00
