Layer                                   
   1.00000000000000     
     2.6004576726853683   -1.5013744842201957    0.0000000000000000
     0.0000000000000000    3.0027489684403914    0.0000000000000000
     0.0000000000000007   -0.0000000000000001   43.1676744404364854
   O    Mg   Al
    10     9     7
Selective dynamics
Direct
  0.0000000000000000 -0.0000000000000000  0.2700551779773781   T   T   T
  0.3333330000000032  0.6666669999999968  0.3251335813319189   T   T   T
  0.0000000000000000 -0.0000000000000000  0.4398995767762134   T   T   T
  0.3333330000000032  0.6666669999999968  0.4973071929480331   T   T   T
  0.0000000000000000 -0.0000000000000000  0.6121319339981381   T   T   T
  0.3333330000000032  0.6666669999999968  0.6695286010456597   T   T   T
  0.0000000000000000 -0.0000000000000000  0.7819571616638186   T   T   T
  0.6666669999999968  0.3333330000000032  0.3825031321855401   T   T   T
  0.6666669999999968  0.3333330000000032  0.5547235755303364   T   T   T
  0.6666669999999968  0.3333330000000032  0.7268947355644200   T   T   T
  0.0000000000000000 -0.0000000000000000  0.3538127081953570   T   T   T
  0.0000000000000000 -0.0000000000000000  0.5260224091776747   T   T   T
  0.0000000000000000 -0.0000000000000000  0.6982081076890014   T   T   T
  0.6666669999999968  0.3333330000000032  0.2963522502818304   T   T   T
  0.6666669999999968  0.3333330000000032  0.4686092239210723   T   T   T
  0.6666669999999968  0.3333330000000032  0.6408303311830759   T   T   T
  0.3333330000000032  0.6666669999999968  0.4112029047279034   T   T   T
  0.3333330000000032  0.6666669999999968  0.5834318113481918   T   T   T
  0.3333330000000032  0.6666669999999968  0.7556645976387701   T   T   T
  0.0000000000000000 -0.0000000000000000  0.0262341922322872   T   T   T
  0.0000000000000000 -0.0000000000000000  0.2299915369486606   T   T   T
  0.6666669999999968  0.3333330000000032  0.1784544581775925   T   T   T
  0.3333330000000032  0.6666669999999968  0.0793023569308075   T   T   T
  0.0000000000000000 -0.0000000000000000  0.8220195222943091   T   T   T
  0.6666669999999968  0.3333330000000032  0.9731756236504868   T   T   T
  0.3333330000000032  0.6666669999999968  0.8735202965815414   T   T   T
 
  0.00000000E+00  0.00000000E+00  0.00000000E+00
  0.00000000E+00  0.00000000E+00  0.00000000E+00
  0.00000000E+00  0.00000000E+00  0.00000000E+00
  0.00000000E+00  0.00000000E+00  0.00000000E+00
  0.00000000E+00  0.00000000E+00  0.00000000E+00
  0.00000000E+00  0.00000000E+00  0.00000000E+00
  0.00000000E+00  0.00000000E+00  0.00000000E+00
  0.00000000E+00  0.00000000E+00  0.00000000E+00
  0.00000000E+00  0.00000000E+00  0.00000000E+00
  0.00000000E+00  0.00000000E+00  0.00000000E+00
  0.00000000E+00  0.00000000E+00  0.00000000E+00
  0.00000000E+00  0.00000000E+00  0.00000000E+00
  0.00000000E+00  0.00000000E+00  0.00000000E+00
  0.00000000E+00  0.00000000E+00  0.00000000E+00
  0.00000000E+00  0.00000000E+00  0.00000000E+00
  0.00000000E+00  0.00000000E+00  0.00000000E+00
  0.00000000E+00  0.00000000E+00  0.00000000E+00
  0.00000000E+00  0.00000000E+00  0.00000000E+00
  0.00000000E+00  0.00000000E+00  0.00000000E+00
  0.00000000E+00  0.00000000E+00  0.00000000E+00
  0.00000000E+00  0.00000000E+00  0.00000000E+00
  0.00000000E+00  0.00000000E+00  0.00000000E+00
  0.00000000E+00  0.00000000E+00  0.00000000E+00
  0.00000000E+00  0.00000000E+00  0.00000000E+00
  0.00000000E+00  0.00000000E+00  0.00000000E+00
  0.00000000E+00  0.00000000E+00  0.00000000E+00
