Layer                                   
   1.00000000000000     
     2.6004576726853683   -1.5013744842201957    0.0000000000000000
     0.0000000000000000    3.0027489684403914    0.0000000000000000
     0.0000000000000007   -0.0000000000000001   43.1676744404364854
   O    Mg   Al
    10     9     7
Selective dynamics
Direct
 -0.0000000000000000  0.0000000000000000  0.2700416673235990   T   T   T
  0.3333330000000032  0.6666669999999968  0.3251252469447419   T   T   T
 -0.0000000000000000 -0.0000000000000000  0.4399139254112157   T   T   T
  0.3333330000000032  0.6666669999999968  0.4973291728301810   T   T   T
 -0.0000000000000000 -0.0000000000000000  0.6121327908043436   T   T   T
  0.3333330000000032  0.6666669999999968  0.6695178985340439   T   T   T
 -0.0000000000000000 -0.0000000000000000  0.7819697658611401   T   T   T
  0.6666669999999968  0.3333330000000032  0.3825097624251094   T   T   T
  0.6666669999999968  0.3333330000000032  0.5547363054040423   T   T   T
  0.6666669999999968  0.3333330000000032  0.7268696380097092   T   T   T
 -0.0000000000000000 -0.0000000000000000  0.3537966363032425   T   T   T
 -0.0000000000000000 -0.0000000000000000  0.5260037698683954   T   T   T
 -0.0000000000000000 -0.0000000000000000  0.6982390317812440   T   T   T
  0.6666669999999968  0.3333330000000032  0.2963776263319026   T   T   T
  0.6666669999999968  0.3333330000000032  0.4685860258553560   T   T   T
  0.6666669999999968  0.3333330000000032  0.6408379149400745   T   T   T
  0.3333330000000032  0.6666669999999968  0.4111925592197105   T   T   T
  0.3333330000000032  0.6666669999999968  0.5834276419230862   T   T   T
  0.3333330000000032  0.6666669999999968  0.7556797948609034   T   T   T
 -0.0000000000000000 -0.0000000000000000  0.0262329851216602   T   T   T
 -0.0000000000000000 -0.0000000000000000  0.2299826409849768   T   T   T
  0.6666669999999968  0.3333330000000032  0.1784474989952378   T   T   T
  0.3333330000000032  0.6666669999999968  0.0793049008931123   T   T   T
 -0.0000000000000000 -0.0000000000000000  0.8220118279617252   T   T   T
  0.6666669999999968  0.3333330000000032  0.9731706504142817   T   T   T
  0.3333330000000032  0.6666669999999968  0.8735293209969681   T   T   T
 
  0.00000000E+00  0.00000000E+00  0.00000000E+00
  0.00000000E+00  0.00000000E+00  0.00000000E+00
  0.00000000E+00  0.00000000E+00  0.00000000E+00
  0.00000000E+00  0.00000000E+00  0.00000000E+00
  0.00000000E+00  0.00000000E+00  0.00000000E+00
  0.00000000E+00  0.00000000E+00  0.00000000E+00
  0.00000000E+00  0.00000000E+00  0.00000000E+00
  0.00000000E+00  0.00000000E+00  0.00000000E+00
  0.00000000E+00  0.00000000E+00  0.00000000E+00
  0.00000000E+00  0.00000000E+00  0.00000000E+00
  0.00000000E+00  0.00000000E+00  0.00000000E+00
  0.00000000E+00  0.00000000E+00  0.00000000E+00
  0.00000000E+00  0.00000000E+00  0.00000000E+00
  0.00000000E+00  0.00000000E+00  0.00000000E+00
  0.00000000E+00  0.00000000E+00  0.00000000E+00
  0.00000000E+00  0.00000000E+00  0.00000000E+00
  0.00000000E+00  0.00000000E+00  0.00000000E+00
  0.00000000E+00  0.00000000E+00  0.00000000E+00
  0.00000000E+00  0.00000000E+00  0.00000000E+00
  0.00000000E+00  0.00000000E+00  0.00000000E+00
  0.00000000E+00  0.00000000E+00  0.00000000E+00
  0.00000000E+00  0.00000000E+00  0.00000000E+00
  0.00000000E+00  0.00000000E+00  0.00000000E+00
  0.00000000E+00  0.00000000E+00  0.00000000E+00
  0.00000000E+00  0.00000000E+00  0.00000000E+00
  0.00000000E+00  0.00000000E+00  0.00000000E+00
