Layer                                   
   1.00000000000000     
     2.5919820456764819   -1.4964810761798768    0.0000000000000000
     0.0000000000000001    2.9929621523597536    0.0000000000000000
     0.0000000000000000   -0.0000000000000001   43.4653014329105361
   O    Mg   Al
     9    10     7
Selective dynamics
Direct
  0.0000000000000000  0.0000000000000000  0.3521426667903718   T   T   T
  0.3333330000000032  0.6666669999999968  0.4100281481777719   T   T   T
  0.0000000000000000  0.0000000000000000  0.5257865779678659   T   T   T
  0.3333330000000032  0.6666669999999968  0.5836738661865489   T   T   T
  0.0000000000000000  0.0000000000000000  0.6994475190728044   T   T   T
  0.3333330000000032  0.6666669999999968  0.7573383465014206   T   T   T
  0.6666669999999968  0.3333330000000032  0.2942514773720799   T   T   T
  0.6666669999999968  0.3333330000000032  0.4679009113880049   T   T   T
  0.6666669999999968  0.3333330000000032  0.6415512870250976   T   T   T
  0.0000000000000000  0.0000000000000000  0.2644851227218749   T   T   T
  0.0000000000000000  0.0000000000000000  0.4389640114671619   T   T   T
  0.0000000000000000  0.0000000000000000  0.6126141988288154   T   T   T
  0.0000000000000000  0.0000000000000000  0.7871008789463593   T   T   T
  0.6666669999999968  0.3333330000000032  0.3811019517124739   T   T   T
  0.6666669999999968  0.3333330000000032  0.5547357028145984   T   T   T
  0.6666669999999968  0.3333330000000032  0.7283522452650821   T   T   T
  0.3333330000000032  0.6666669999999968  0.3232278490028016   T   T   T
  0.3333330000000032  0.6666669999999968  0.4968422282170457   T   T   T
  0.3333330000000032  0.6666669999999968  0.6704811754324939   T   T   T
  0.0000000000000000  0.0000000000000000  0.0257855171765447   T   T   T
  0.0000000000000000  0.0000000000000000  0.1943925633682621   T   T   T
  0.6666669999999968  0.3333330000000032  0.1370286765874633   T   T   T
  0.3333330000000032  0.6666669999999968  0.0812978904719618   T   T   T
  0.0000000000000000  0.0000000000000000  0.8571730874739236   T   T   T
  0.6666669999999968  0.3333330000000032  0.9702727930863870   T   T   T
  0.3333330000000032  0.6666669999999968  0.9145383069448220   T   T   T
 
  0.00000000E+00  0.00000000E+00  0.00000000E+00
  0.00000000E+00  0.00000000E+00  0.00000000E+00
  0.00000000E+00  0.00000000E+00  0.00000000E+00
  0.00000000E+00  0.00000000E+00  0.00000000E+00
  0.00000000E+00  0.00000000E+00  0.00000000E+00
  0.00000000E+00  0.00000000E+00  0.00000000E+00
  0.00000000E+00  0.00000000E+00  0.00000000E+00
  0.00000000E+00  0.00000000E+00  0.00000000E+00
  0.00000000E+00  0.00000000E+00  0.00000000E+00
  0.00000000E+00  0.00000000E+00  0.00000000E+00
  0.00000000E+00  0.00000000E+00  0.00000000E+00
  0.00000000E+00  0.00000000E+00  0.00000000E+00
  0.00000000E+00  0.00000000E+00  0.00000000E+00
  0.00000000E+00  0.00000000E+00  0.00000000E+00
  0.00000000E+00  0.00000000E+00  0.00000000E+00
  0.00000000E+00  0.00000000E+00  0.00000000E+00
  0.00000000E+00  0.00000000E+00  0.00000000E+00
  0.00000000E+00  0.00000000E+00  0.00000000E+00
  0.00000000E+00  0.00000000E+00  0.00000000E+00
  0.00000000E+00  0.00000000E+00  0.00000000E+00
  0.00000000E+00  0.00000000E+00  0.00000000E+00
  0.00000000E+00  0.00000000E+00  0.00000000E+00
  0.00000000E+00  0.00000000E+00  0.00000000E+00
  0.00000000E+00  0.00000000E+00  0.00000000E+00
  0.00000000E+00  0.00000000E+00  0.00000000E+00
  0.00000000E+00  0.00000000E+00  0.00000000E+00
