Layer                                   
   1.00000000000000     
     2.5919820456764819   -1.4964810761798768    0.0000000000000000
     0.0000000000000001    2.9929621523597536    0.0000000000000000
     0.0000000000000000   -0.0000000000000001   43.4653014329105361
   O    Mg   Al
     9    10     7
Selective dynamics
Direct
  0.0000000000000000  0.0000000000000000  0.3521449292702857   T   T   T
  0.3333330000000032  0.6666669999999968  0.4100273234151573   T   T   T
  0.0000000000000000  0.0000000000000000  0.5257967502397786   T   T   T
  0.3333330000000032  0.6666669999999968  0.5836914027648065   T   T   T
  0.0000000000000000  0.0000000000000000  0.6994406686123777   T   T   T
  0.3333330000000032  0.6666669999999968  0.7573243875707897   T   T   T
  0.6666669999999968  0.3333330000000032  0.2942432764235341   T   T   T
  0.6666669999999968  0.3333330000000032  0.4678981810719851   T   T   T
  0.6666669999999968  0.3333330000000032  0.6415594537702162   T   T   T
  0.0000000000000000  0.0000000000000000  0.2644833759059957   T   T   T
  0.0000000000000000  0.0000000000000000  0.4389570365707430   T   T   T
  0.0000000000000000  0.0000000000000000  0.6126098498155121   T   T   T
  0.0000000000000000  0.0000000000000000  0.7871123169658415   T   T   T
  0.6666669999999968  0.3333330000000032  0.3811045421764272   T   T   T
  0.6666669999999968  0.3333330000000032  0.5547223740695854   T   T   T
  0.6666669999999968  0.3333330000000032  0.7283810460613989   T   T   T
  0.3333330000000032  0.6666669999999968  0.3232230492567002   T   T   T
  0.3333330000000032  0.6666669999999968  0.4968350718532958   T   T   T
  0.3333330000000032  0.6666669999999968  0.6704723799417377   T   T   T
  0.0000000000000000  0.0000000000000000  0.0257855422391792   T   T   T
  0.0000000000000000  0.0000000000000000  0.1943878030739857   T   T   T
  0.6666669999999968  0.3333330000000032  0.1370227047804984   T   T   T
  0.3333330000000032  0.6666669999999968  0.0812977291480720   T   T   T
  0.0000000000000000  0.0000000000000000  0.8571768890642405   T   T   T
  0.6666669999999968  0.3333330000000032  0.9702728427430999   T   T   T
  0.3333330000000032  0.6666669999999968  0.9145440731947937   T   T   T
 
  0.00000000E+00  0.00000000E+00  0.00000000E+00
  0.00000000E+00  0.00000000E+00  0.00000000E+00
  0.00000000E+00  0.00000000E+00  0.00000000E+00
  0.00000000E+00  0.00000000E+00  0.00000000E+00
  0.00000000E+00  0.00000000E+00  0.00000000E+00
  0.00000000E+00  0.00000000E+00  0.00000000E+00
  0.00000000E+00  0.00000000E+00  0.00000000E+00
  0.00000000E+00  0.00000000E+00  0.00000000E+00
  0.00000000E+00  0.00000000E+00  0.00000000E+00
  0.00000000E+00  0.00000000E+00  0.00000000E+00
  0.00000000E+00  0.00000000E+00  0.00000000E+00
  0.00000000E+00  0.00000000E+00  0.00000000E+00
  0.00000000E+00  0.00000000E+00  0.00000000E+00
  0.00000000E+00  0.00000000E+00  0.00000000E+00
  0.00000000E+00  0.00000000E+00  0.00000000E+00
  0.00000000E+00  0.00000000E+00  0.00000000E+00
  0.00000000E+00  0.00000000E+00  0.00000000E+00
  0.00000000E+00  0.00000000E+00  0.00000000E+00
  0.00000000E+00  0.00000000E+00  0.00000000E+00
  0.00000000E+00  0.00000000E+00  0.00000000E+00
  0.00000000E+00  0.00000000E+00  0.00000000E+00
  0.00000000E+00  0.00000000E+00  0.00000000E+00
  0.00000000E+00  0.00000000E+00  0.00000000E+00
  0.00000000E+00  0.00000000E+00  0.00000000E+00
  0.00000000E+00  0.00000000E+00  0.00000000E+00
  0.00000000E+00  0.00000000E+00  0.00000000E+00
