Layer (20)                              
   1.00000000000000     
     2.5851399813437097   -1.4925270234297661    0.0000000000000001
     0.0000000000000000    2.9850540468595321    0.0000000000000000
    -0.0000000000000006    0.0000000000000000   82.2074044781549702
   O    Mg  
    10    11    
Selective dynamics
Direct
  0.0000000000000000  0.0000000000000000  0.4402319066523813   T   T   T
  0.3333330000000032  0.6666669999999968  0.4700247632311388   T   T   T
  0.0000000000000000  0.0000000000000000  0.5296966410256327   T   T   T
  0.3333330000000032  0.6666669999999968  0.5595692888725569   T   T   T
  0.0000000000000000  0.0000000000000000  0.6193576422229334   T   T   T
  0.3333330000000032  0.6666669999999968  0.6492492516694301   T   T   T
 -0.0000000000000000 -0.0000000000000000  0.7090176314781138   T   T   T
  0.6666669999999968  0.3333330000000032  0.4998518432617855   T   T   T
  0.6666669999999968  0.3333330000000032  0.5894658580384208   T   T   T
  0.6666669999999968  0.3333330000000032  0.6791496428777866   T   T   T
  0.0000000000000000  0.0000000000000000  0.4849977892572994   T   T   T
  0.0000000000000000  0.0000000000000000  0.5745801152562163   T   T   T
 -0.0000000000000000 -0.0000000000000000  0.6642568400122500   T   T   T
  0.6666669999999968  0.3333330000000032  0.4551643027555285   T   T   T
  0.6666669999999968  0.3333330000000032  0.5446886007809327   T   T   T
  0.6666669999999968  0.3333330000000032  0.6343712708686743   T   T   T
  0.6666669999999968  0.3333330000000032  0.7246707726466162   T   T   T
  0.3333330000000032  0.6666669999999968  0.4248217010470410   T   T   T
  0.3333330000000032  0.6666669999999968  0.5148405129915549   T   T   T
  0.3333330000000032  0.6666669999999968  0.6044723283667847   T   T   T
  0.3333330000000032  0.6666669999999968  0.6941681056321167   T   T   T

  0.00000000E+00  0.00000000E+00  0.00000000E+00
  0.00000000E+00  0.00000000E+00  0.00000000E+00
  0.00000000E+00  0.00000000E+00  0.00000000E+00
  0.00000000E+00  0.00000000E+00  0.00000000E+00
  0.00000000E+00  0.00000000E+00  0.00000000E+00
  0.00000000E+00  0.00000000E+00  0.00000000E+00
  0.00000000E+00  0.00000000E+00  0.00000000E+00
  0.00000000E+00  0.00000000E+00  0.00000000E+00
  0.00000000E+00  0.00000000E+00  0.00000000E+00
  0.00000000E+00  0.00000000E+00  0.00000000E+00
  0.00000000E+00  0.00000000E+00  0.00000000E+00
  0.00000000E+00  0.00000000E+00  0.00000000E+00
  0.00000000E+00  0.00000000E+00  0.00000000E+00
  0.00000000E+00  0.00000000E+00  0.00000000E+00
  0.00000000E+00  0.00000000E+00  0.00000000E+00
  0.00000000E+00  0.00000000E+00  0.00000000E+00
  0.00000000E+00  0.00000000E+00  0.00000000E+00
  0.00000000E+00  0.00000000E+00  0.00000000E+00
  0.00000000E+00  0.00000000E+00  0.00000000E+00
  0.00000000E+00  0.00000000E+00  0.00000000E+00
  0.00000000E+00  0.00000000E+00  0.00000000E+00
  0.00000000E+00  0.00000000E+00  0.00000000E+00
  0.00000000E+00  0.00000000E+00  0.00000000E+00
  0.00000000E+00  0.00000000E+00  0.00000000E+00
  0.00000000E+00  0.00000000E+00  0.00000000E+00
  0.00000000E+00  0.00000000E+00  0.00000000E+00
  0.00000000E+00  0.00000000E+00  0.00000000E+00
  0.00000000E+00  0.00000000E+00  0.00000000E+00
