Layer (26)                              
   1.00000000000000     
     2.6073001451353437   -1.5053251247893427    0.0000000000000000
     0.0000000000000000    3.0106502495786853    0.0000000000000000
    -0.0000000000000004    0.0000000000000000   68.5120394419064809
   Al
     7
Selective dynamics
Direct
  0.0000000000000000  0.0000000000000000  0.2314813110482774   T   T   T
  0.0000000000000000  0.0000000000000000  0.3282590837984571   T   T   T
  0.0000000000000000  0.0000000000000000  0.4246058584864585   T   T   T
  0.6666669999999968  0.3333330000000032  0.2961485580978547   T   T   T
  0.6666669999999968  0.3333330000000032  0.3933197949424141   T   T   T
  0.3333330000000032  0.6666669999999968  0.2640564609939489   T   T   T
  0.3333330000000032  0.6666669999999968  0.3606964536333876   T   T   T
 
  0.00000000E+00  0.00000000E+00  0.00000000E+00
  0.00000000E+00  0.00000000E+00  0.00000000E+00
  0.00000000E+00  0.00000000E+00  0.00000000E+00
  0.00000000E+00  0.00000000E+00  0.00000000E+00
  0.00000000E+00  0.00000000E+00  0.00000000E+00
  0.00000000E+00  0.00000000E+00  0.00000000E+00
  0.00000000E+00  0.00000000E+00  0.00000000E+00
