Layer20                                 
   1.00000000000000     
     2.5363690000000001   -1.4643729999999999    0.0000000000000000
     0.0000000000000000    2.9287459999999998    0.0000000000000000
     0.0000000000000000    0.0000000000000000   72.8175860000000057
   O    Mg   Al
     9    10     7
Selective dynamics
Direct
  0.5420561440997719  0.4579438559002283  0.4973806207263730   T   T   T
  0.5414780837518639  0.4585219162481360  0.5989315852032284   T   T   T
  0.5428602370352855  0.4571397629647144  0.7005343999587577   T   T   T
  0.2093606870066005  0.7906393129933998  0.4635783601370554   T   T   T
  0.8750479907503984  0.1249520092496017  0.5312341673399235   T   T   T
  0.2081957826307789  0.7918042173692205  0.5650833159248742   T   T   T
  0.8751353505584006  0.1248646494415994  0.6327683677081691   T   T   T
  0.2090080100107325  0.7909919899892672  0.6666365629661012   T   T   T
  0.8762276075449729  0.1237723924550274  0.7343903430243262   T   T   T
  0.5430768727418989  0.4569231272581009  0.4463802054353534   T   T   T
  0.5416635217921326  0.4583364782078674  0.5482335717424991   T   T   T
  0.5420693368835852  0.4579306631164147  0.6497794310570846   T   T   T
  0.5425975415776045  0.4574024584223954  0.7521300789955464   T   T   T
  0.8757543650484721  0.1242456349515279  0.4805257715655987   T   T   T
  0.2085211233202352  0.7914788766797646  0.5143820749687863   T   T   T
  0.8747486425182309  0.1252513574817692  0.5820773354003149   T   T   T
  0.2083052373670935  0.7916947626329069  0.6159121078306651   T   T   T
  0.8759779748917238  0.1240220251082765  0.6836557796802353   T   T   T
  0.2096554192372791  0.7903445807627199  0.7175551019597627   T   T   T
 -0.1126897545723991  0.1126897545723992  0.2275994257901039   T   T   T
 -0.1113781607672035  0.1113781607672035  0.3208375214473230   T   T   T
 -0.1203599913462268  0.1203599913462268  0.4136006579940449   T   T   T
  0.5556964935626725  0.4443035064373279  0.2899032245722983   T   T   T
  0.5477975314052742  0.4522024685947254  0.3829159721457421   T   T   T
  0.2214445364147634  0.7785554635852363  0.2590024353857034   T   T   T
  0.2177494165360598  0.7822505834639411  0.3520325810401340   T   T   T
 
  0.00000000E+00  0.00000000E+00  0.00000000E+00
  0.00000000E+00  0.00000000E+00  0.00000000E+00
  0.00000000E+00  0.00000000E+00  0.00000000E+00
  0.00000000E+00  0.00000000E+00  0.00000000E+00
  0.00000000E+00  0.00000000E+00  0.00000000E+00
  0.00000000E+00  0.00000000E+00  0.00000000E+00
  0.00000000E+00  0.00000000E+00  0.00000000E+00
  0.00000000E+00  0.00000000E+00  0.00000000E+00
  0.00000000E+00  0.00000000E+00  0.00000000E+00
  0.00000000E+00  0.00000000E+00  0.00000000E+00
  0.00000000E+00  0.00000000E+00  0.00000000E+00
  0.00000000E+00  0.00000000E+00  0.00000000E+00
  0.00000000E+00  0.00000000E+00  0.00000000E+00
  0.00000000E+00  0.00000000E+00  0.00000000E+00
  0.00000000E+00  0.00000000E+00  0.00000000E+00
  0.00000000E+00  0.00000000E+00  0.00000000E+00
  0.00000000E+00  0.00000000E+00  0.00000000E+00
  0.00000000E+00  0.00000000E+00  0.00000000E+00
  0.00000000E+00  0.00000000E+00  0.00000000E+00
  0.00000000E+00  0.00000000E+00  0.00000000E+00
  0.00000000E+00  0.00000000E+00  0.00000000E+00
  0.00000000E+00  0.00000000E+00  0.00000000E+00
  0.00000000E+00  0.00000000E+00  0.00000000E+00
  0.00000000E+00  0.00000000E+00  0.00000000E+00
  0.00000000E+00  0.00000000E+00  0.00000000E+00
  0.00000000E+00  0.00000000E+00  0.00000000E+00
