MgO13 
1.0 
2.124436 -2.124435 -0.000000 
0.000000 2.124436 -2.124436 
17.157996 17.157996 17.157996 
O Mg 
6 7 
Selective Dynamics
Direct 
1.000000 0.000000 0.157465 T T T 
0.333333 0.666667 0.240009 F F F 
1.000000 0.000000 0.405097 F F F 
0.333333 0.666667 0.487641 F F F 
0.666667 0.333333 0.074921 T T T 
0.666667 0.333333 0.322553 F F F 
0.000000 0.000000 0.033649 T T T 
-0.000000 -0.000000 0.281281 F F F 
0.000000 0.000000 0.528913 F F F 
0.666667 0.333333 0.198737 T T T 
0.666667 0.333333 0.446369 F F F 
0.333333 0.666667 0.116193 T T T 
0.333333 0.666667 0.363825 F F F 
