OT hollow                               
   1.00000000000000     
     2.5811541392653616   -1.5324138013876256    0.0027477723695831
    -0.0365325771383558    3.0015513008946511   -0.0027477716826384
     0.0222045901268964   -0.0384594709818474   39.8363723061496202
   O    Mg   Al
    10     9     7
Selective dynamics
Direct
  0.5057543849557999  0.4942456150184639  0.2429433049106624   T   T   T
  0.5059806528522364  0.4940193471468898  0.4316183069453246   T   T   T
  0.4940019226054209  0.5059980773955459  0.6204521975784582   T   T   T
  0.4942650696220000  0.5057349304076435  0.8091465011678669   T   T   T
  0.8478435168505327  0.1521564831463552  0.3056451095361281   T   T   T
  0.1767416927377123  0.8232583072614355  0.3686419258773153   T   T   T
  0.8352943682868107  0.1647056317136086  0.4945564617800549   T   T   T
  0.1646781942648702  0.8353218057347888  0.5575075842120082   T   T   T
  0.8232496552245749  0.1767503447767535  0.6834306829019478   T   T   T
  0.1521371662130637  0.8478628337916473  0.7464282327766133   T   T   T
  0.5122589515774105  0.4877410484289063  0.3371655605995182   T   T   T
  0.4999945259334351  0.5000054740665575  0.5260303553417682   T   T   T
  0.4877387862111821  0.5122612137831689  0.7149185994028884   T   T   T
  0.1843614625382735  0.8156385376374082  0.2741701681974554   T   T   T
  0.8413553842241756  0.1586446157695502  0.4001331665646639   T   T   T
  0.1705952981147843  0.8294047018849101  0.4630868516959674   T   T   T
  0.8293973825899836  0.1706026174102722  0.5889782026293976   T   T   T
  0.1586381010743450  0.8413618989315738  0.6519313215623755   T   T   T
  0.8156434442447003  0.1843565555763424  0.7779169335736957   T   T   T
  0.0000254908231694  0.9999745091435913  0.0260351584883844   T   T   T
  0.9893951197550545  0.0106048801031782  0.2058101803843755   T   T   T
  0.6816498602744736  0.3183501397512408  0.1471498456314138   T   T   T
  0.3307073776050524  0.6692926223910256  0.0863116228195666   T   T   T
  0.0106051581225467  0.9893948420114048  0.8462752213632468   T   T   T
  0.6693315598240696  0.3306684402153089  0.9657590345404522   T   T   T
  0.3183554734743152  0.6816445265024215  0.9049244695184685   T   T   T
 
  0.00000000E+00  0.00000000E+00  0.00000000E+00
  0.00000000E+00  0.00000000E+00  0.00000000E+00
  0.00000000E+00  0.00000000E+00  0.00000000E+00
  0.00000000E+00  0.00000000E+00  0.00000000E+00
  0.00000000E+00  0.00000000E+00  0.00000000E+00
  0.00000000E+00  0.00000000E+00  0.00000000E+00
  0.00000000E+00  0.00000000E+00  0.00000000E+00
  0.00000000E+00  0.00000000E+00  0.00000000E+00
  0.00000000E+00  0.00000000E+00  0.00000000E+00
  0.00000000E+00  0.00000000E+00  0.00000000E+00
  0.00000000E+00  0.00000000E+00  0.00000000E+00
  0.00000000E+00  0.00000000E+00  0.00000000E+00
  0.00000000E+00  0.00000000E+00  0.00000000E+00
  0.00000000E+00  0.00000000E+00  0.00000000E+00
  0.00000000E+00  0.00000000E+00  0.00000000E+00
  0.00000000E+00  0.00000000E+00  0.00000000E+00
  0.00000000E+00  0.00000000E+00  0.00000000E+00
  0.00000000E+00  0.00000000E+00  0.00000000E+00
  0.00000000E+00  0.00000000E+00  0.00000000E+00
  0.00000000E+00  0.00000000E+00  0.00000000E+00
  0.00000000E+00  0.00000000E+00  0.00000000E+00
  0.00000000E+00  0.00000000E+00  0.00000000E+00
  0.00000000E+00  0.00000000E+00  0.00000000E+00
  0.00000000E+00  0.00000000E+00  0.00000000E+00
  0.00000000E+00  0.00000000E+00  0.00000000E+00
  0.00000000E+00  0.00000000E+00  0.00000000E+00
