OT hollow                               
   1.00000000000000     
     2.5811541392653616   -1.5324138013876256    0.0027477723695831
    -0.0365325771383558    3.0015513008946511   -0.0027477716826384
0.0222045901268964 -0.0384594709818474 39.8363723061496227
   O    Mg   Al
    10     9     7
Selective dynamics
Direct
  0.5044365517813829  0.4955634481928810  0.2410393061807457   T   T   T
  0.5056662678878916  0.4943337321112346  0.4309484974949731   T   T   T
  0.4943351377865310  0.5056648622144353  0.6211182306223846   T   T   T
  0.4955632957430793  0.5044367042865646  0.8110528571747878   T   T   T
  0.8468164146133222  0.1531835853835656  0.3041637465996917   T   T   T
  0.1761208403022478  0.8238791596968995  0.3675463040723179   T   T   T
  0.8352232811798951  0.1647767188205242  0.4943500585421712   T   T   T
  0.1647882819987433  0.8352117180009155  0.5577135583751043   T   T   T
  0.8238579996176916  0.1761420003836373  0.6845268395521994   T   T   T
  0.1531692673645027  0.8468307326402083  0.7479216464553410   T   T   T
  0.5113981359432828  0.4886018640630344  0.3358353164077879   T   T   T
  0.4999823924356260  0.5000176075643669  0.5260431572404493   T   T   T
  0.4885966905924110  0.5114033094019403  0.7162388438860695   T   T   T
  0.1831394724901358  0.8168605276855462  0.2724640728039896   T   T   T
  0.8408593803960820  0.1591406195976439  0.3992325046322217   T   T   T
  0.1703741556805981  0.8296258443190967  0.4626434934398323   T   T   T
  0.8295947556199670  0.1704052443802890  0.5894409578564352   T   T   T
  0.1591198592820697  0.8408801407238489  0.6528412555086366   T   T   T
  0.8168357476642971  0.1831642521567456  0.7795921227302257   T   T   T
  0.0000325657168789  0.9999674342498818  0.0260386681563085   T   T   T
  0.9894132787285791  0.0105867211296536  0.2036590660222266   T   T   T
  0.6798470723773141  0.3201529276484006  0.1456368290908895   T   T   T
  0.3306144403219756  0.6693855596741025  0.0856059055931715   T   T   T
  0.0105906552352024  0.9894093448987490  0.8484022591119822   T   T   T
  0.6694377487004228  0.3305622513389552  0.9664738673114225   T   T   T
  0.3201863105398638  0.6798136894368731  0.9064376351386471   T   T   T
 
  0.00000000E+00  0.00000000E+00  0.00000000E+00
  0.00000000E+00  0.00000000E+00  0.00000000E+00
  0.00000000E+00  0.00000000E+00  0.00000000E+00
  0.00000000E+00  0.00000000E+00  0.00000000E+00
  0.00000000E+00  0.00000000E+00  0.00000000E+00
  0.00000000E+00  0.00000000E+00  0.00000000E+00
  0.00000000E+00  0.00000000E+00  0.00000000E+00
  0.00000000E+00  0.00000000E+00  0.00000000E+00
  0.00000000E+00  0.00000000E+00  0.00000000E+00
  0.00000000E+00  0.00000000E+00  0.00000000E+00
  0.00000000E+00  0.00000000E+00  0.00000000E+00
  0.00000000E+00  0.00000000E+00  0.00000000E+00
  0.00000000E+00  0.00000000E+00  0.00000000E+00
  0.00000000E+00  0.00000000E+00  0.00000000E+00
  0.00000000E+00  0.00000000E+00  0.00000000E+00
  0.00000000E+00  0.00000000E+00  0.00000000E+00
  0.00000000E+00  0.00000000E+00  0.00000000E+00
  0.00000000E+00  0.00000000E+00  0.00000000E+00
  0.00000000E+00  0.00000000E+00  0.00000000E+00
  0.00000000E+00  0.00000000E+00  0.00000000E+00
  0.00000000E+00  0.00000000E+00  0.00000000E+00
  0.00000000E+00  0.00000000E+00  0.00000000E+00
  0.00000000E+00  0.00000000E+00  0.00000000E+00
  0.00000000E+00  0.00000000E+00  0.00000000E+00
  0.00000000E+00  0.00000000E+00  0.00000000E+00
  0.00000000E+00  0.00000000E+00  0.00000000E+00
