Layer (26)                              
   1.00000000000000     
     2.6073001451353437   -1.5053251247893427    0.0000000000000000
     0.0000000000000000    3.0106502495786853    0.0000000000000000
    -0.0000000000000004    0.0000000000000000   68.5120394419064809
   O    Mg
    10     9
Selective dynamics
Direct
  0.0000000000000000  0.0000000000000000  0.4496964455112433   T   T   T
  0.3333330000000032  0.6666669999999968  0.4840608447133903   T   T   T
  0.0000000000000000  0.0000000000000000  0.5557496492332348   T   T   T
  0.3333330000000032  0.6666669999999968  0.5915716868486527   T   T   T
  0.0000000000000000  0.0000000000000000  0.6632105430552642   T   T   T
  0.3333330000000032  0.6666669999999968  0.6989448734900350   T   T   T
  0.0000000000000000  0.0000000000000000  0.7675061950735866   T   T   T
  0.6666669999999968  0.3333330000000032  0.5199000208527806   T   T   T
  0.6666669999999968  0.3333330000000032  0.6274041748991692   T   T   T
  0.6666669999999968  0.3333330000000032  0.7341953505156695   T   T   T
  0.0000000000000000  0.0000000000000000  0.5022226409913273   T   T   T
  0.0000000000000000  0.0000000000000000  0.6097472319424710   T   T   T
  0.0000000000000000  0.0000000000000000  0.7173723316167511   T   T   T
  0.6666669999999968  0.3333330000000032  0.4663192050695244   T   T   T
  0.6666669999999968  0.3333330000000032  0.5739141576793898   T   T   T
  0.6666669999999968  0.3333330000000032  0.6814229736874182   T   T   T
  0.3333330000000032  0.6666669999999968  0.5380754922398765   T   T   T
  0.3333330000000032  0.6666669999999968  0.6455794263031365   T   T   T
  0.3333330000000032  0.6666669999999968  0.7540672352762954   T   T   T
 
  0.00000000E+00  0.00000000E+00  0.00000000E+00
  0.00000000E+00  0.00000000E+00  0.00000000E+00
  0.00000000E+00  0.00000000E+00  0.00000000E+00
  0.00000000E+00  0.00000000E+00  0.00000000E+00
  0.00000000E+00  0.00000000E+00  0.00000000E+00
  0.00000000E+00  0.00000000E+00  0.00000000E+00
  0.00000000E+00  0.00000000E+00  0.00000000E+00
  0.00000000E+00  0.00000000E+00  0.00000000E+00
  0.00000000E+00  0.00000000E+00  0.00000000E+00
  0.00000000E+00  0.00000000E+00  0.00000000E+00
  0.00000000E+00  0.00000000E+00  0.00000000E+00
  0.00000000E+00  0.00000000E+00  0.00000000E+00
  0.00000000E+00  0.00000000E+00  0.00000000E+00
  0.00000000E+00  0.00000000E+00  0.00000000E+00
  0.00000000E+00  0.00000000E+00  0.00000000E+00
  0.00000000E+00  0.00000000E+00  0.00000000E+00
  0.00000000E+00  0.00000000E+00  0.00000000E+00
  0.00000000E+00  0.00000000E+00  0.00000000E+00
  0.00000000E+00  0.00000000E+00  0.00000000E+00
