Layer (26)                              
   1.00000000000000     
     2.6073001451353437   -1.5053251247893427    0.0000000000000000
     0.0000000000000000    3.0106502495786853    0.0000000000000000
    -0.0000000000000004    0.0000000000000000   68.5120394419064809
   O    Mg  
    10     9    
Selective dynamics
Direct
 -0.0000000000000000 -0.0000000000000000  0.4496964455112455   T   T   T
  0.3333330000000032  0.6666669999999968  0.4840608447133894   T   T   T
 -0.0000000000000000 -0.0000000000000000  0.5557496492332350   T   T   T
  0.3333330000000032  0.6666669999999968  0.5915716868486549   T   T   T
  0.0000000000000000  0.0000000000000000  0.6632105430552644   T   T   T
  0.3333330000000032  0.6666669999999968  0.6989448734900324   T   T   T
  0.0000000000000000 -0.0000000000000000  0.7675061950735854   T   T   T
  0.6666669999999968  0.3333330000000032  0.5199000208527785   T   T   T
  0.6666669999999968  0.3333330000000032  0.6274041748991706   T   T   T
  0.6666669999999968  0.3333330000000032  0.7341953505156694   T   T   T
 -0.0000000000000000 -0.0000000000000000  0.5022226409913261   T   T   T
 -0.0000000000000000 -0.0000000000000000  0.6097472319424679   T   T   T
  0.0000000000000000  0.0000000000000000  0.7173723316167502   T   T   T
  0.6666669999999968  0.3333330000000032  0.4663192050695213   T   T   T
  0.6666669999999968  0.3333330000000032  0.5739141576793931   T   T   T
  0.6666669999999968  0.3333330000000032  0.6814229736874196   T   T   T
  0.3333330000000032  0.6666669999999968  0.5380754922398784   T   T   T
  0.3333330000000032  0.6666669999999968  0.6455794263031384   T   T   T
  0.3333330000000032  0.6666669999999968  0.7540672352762949   T   T   T

 
  0.00000000E+00  0.00000000E+00  0.00000000E+00
  0.00000000E+00  0.00000000E+00  0.00000000E+00
  0.00000000E+00  0.00000000E+00  0.00000000E+00
  0.00000000E+00  0.00000000E+00  0.00000000E+00
  0.00000000E+00  0.00000000E+00  0.00000000E+00
  0.00000000E+00  0.00000000E+00  0.00000000E+00
  0.00000000E+00  0.00000000E+00  0.00000000E+00
  0.00000000E+00  0.00000000E+00  0.00000000E+00
  0.00000000E+00  0.00000000E+00  0.00000000E+00
  0.00000000E+00  0.00000000E+00  0.00000000E+00
  0.00000000E+00  0.00000000E+00  0.00000000E+00
  0.00000000E+00  0.00000000E+00  0.00000000E+00
  0.00000000E+00  0.00000000E+00  0.00000000E+00
  0.00000000E+00  0.00000000E+00  0.00000000E+00
  0.00000000E+00  0.00000000E+00  0.00000000E+00
  0.00000000E+00  0.00000000E+00  0.00000000E+00
  0.00000000E+00  0.00000000E+00  0.00000000E+00
  0.00000000E+00  0.00000000E+00  0.00000000E+00
  0.00000000E+00  0.00000000E+00  0.00000000E+00
  0.00000000E+00  0.00000000E+00  0.00000000E+00
  0.00000000E+00  0.00000000E+00  0.00000000E+00
  0.00000000E+00  0.00000000E+00  0.00000000E+00
  0.00000000E+00  0.00000000E+00  0.00000000E+00
  0.00000000E+00  0.00000000E+00  0.00000000E+00
  0.00000000E+00  0.00000000E+00  0.00000000E+00
  0.00000000E+00  0.00000000E+00  0.00000000E+00
