Layer                                   
   1.00000000000000     
     2.5753034101725314   -1.4868516770802194    0.0000000000000000
     0.0000000000000000    2.9737033541604387   -0.0000000000000000
    -0.0000000000000009   -0.0000000000000000   40.8114749486850386
   O    Mg   Al
    11    10     7
Selective dynamics
Direct
  0.3333330000000032  0.6666669999999968  0.2223924359724084   T   T   T
 -0.0000000000000000 -0.0000000000000000  0.3439869187877448   T   T   T
  0.3333330000000032  0.6666669999999968  0.4041835212958152   T   T   T
  0.0000000000000000  0.0000000000000000  0.5245253165602538   T   T   T
  0.3333330000000032  0.6666669999999968  0.5846941185923544   T   T   T
  0.0000000000000000  0.0000000000000000  0.7051539746572635   T   T   T
  0.3333330000000032  0.6666669999999968  0.7654648207631749   T   T   T
  0.6666669999999968  0.3333330000000032  0.2836728200021795   T   T   T
  0.6666669999999968  0.3333330000000032  0.4643683423809994   T   T   T
  0.6666669999999968  0.3333330000000032  0.6449132967740925   T   T   T
  0.6666669999999968  0.3333330000000032  0.8266883796650859   T   T   T
 -0.0000000000000000 -0.0000000000000000  0.2535325569602952   T   T   T
 -0.0000000000000000 -0.0000000000000000  0.4342700895256493   T   T   T
  0.0000000000000000  0.0000000000000000  0.6148054335396400   T   T   T
  0.0000000000000000  0.0000000000000000  0.7955080415562140   T   T   T
  0.6666669999999968  0.3333330000000032  0.3740598802616874   T   T   T
  0.6666669999999968  0.3333330000000032  0.5546173771168393   T   T   T
  0.6666669999999968  0.3333330000000032  0.7352753541333985   T   T   T
  0.3333330000000032  0.6666669999999968  0.3138118290206692   T   T   T
  0.3333330000000032  0.6666669999999968  0.4944471695059864   T   T   T
  0.3333330000000032  0.6666669999999968  0.6750390386857040   T   T   T
 -0.0000000000000000 -0.0000000000000000  0.0245424885605004   T   T   T
 -0.0000000000000000 -0.0000000000000000  0.1866897071982763   T   T   T
  0.6666669999999968  0.3333330000000032  0.1341601182483239   T   T   T
  0.3333330000000032  0.6666669999999968  0.0792347461463606   T   T   T
  0.0000000000000000  0.0000000000000000  0.8623568472154006   T   T   T
  0.6666669999999968  0.3333330000000032  0.9698334228138142   T   T   T
  0.3333330000000032  0.6666669999999968  0.9149229540598759   T   T   T
 
  0.00000000E+00  0.00000000E+00  0.00000000E+00
  0.00000000E+00  0.00000000E+00  0.00000000E+00
  0.00000000E+00  0.00000000E+00  0.00000000E+00
  0.00000000E+00  0.00000000E+00  0.00000000E+00
  0.00000000E+00  0.00000000E+00  0.00000000E+00
  0.00000000E+00  0.00000000E+00  0.00000000E+00
  0.00000000E+00  0.00000000E+00  0.00000000E+00
  0.00000000E+00  0.00000000E+00  0.00000000E+00
  0.00000000E+00  0.00000000E+00  0.00000000E+00
  0.00000000E+00  0.00000000E+00  0.00000000E+00
  0.00000000E+00  0.00000000E+00  0.00000000E+00
  0.00000000E+00  0.00000000E+00  0.00000000E+00
  0.00000000E+00  0.00000000E+00  0.00000000E+00
  0.00000000E+00  0.00000000E+00  0.00000000E+00
  0.00000000E+00  0.00000000E+00  0.00000000E+00
  0.00000000E+00  0.00000000E+00  0.00000000E+00
  0.00000000E+00  0.00000000E+00  0.00000000E+00
  0.00000000E+00  0.00000000E+00  0.00000000E+00
  0.00000000E+00  0.00000000E+00  0.00000000E+00
  0.00000000E+00  0.00000000E+00  0.00000000E+00
  0.00000000E+00  0.00000000E+00  0.00000000E+00
  0.00000000E+00  0.00000000E+00  0.00000000E+00
  0.00000000E+00  0.00000000E+00  0.00000000E+00
  0.00000000E+00  0.00000000E+00  0.00000000E+00
  0.00000000E+00  0.00000000E+00  0.00000000E+00
  0.00000000E+00  0.00000000E+00  0.00000000E+00
  0.00000000E+00  0.00000000E+00  0.00000000E+00
  0.00000000E+00  0.00000000E+00  0.00000000E+00
