Layer 
1.0 
2.514528 -1.451763 0.000000 
0.000000 2.903526 -0.000000 
-0.000000 0.000000 46.271574 
O Mg Al 
11 10 7 
Selective Dynamics
Direct 
0.333333 0.666667 0.240491 T T T 
0.000000 0.000000 0.354017 T T T 
0.333333 0.666667 0.410780 T T T 
0.000000 0.000000 0.524305 T T T 
0.333333 0.666667 0.581068 T T T 
0.000000 -0.000000 0.694594 T T T 
0.333333 0.666667 0.751357 T T T 
0.666667 0.333333 0.297254 T T T 
0.666667 0.333333 0.467543 T T T 
0.666667 0.333333 0.637831 T T T 
0.666667 0.333333 0.808120 T T T 
-0.000000 -0.000000 0.268873 T T T 
0.000000 0.000000 0.439161 T T T 
0.000000 -0.000000 0.609450 T T T 
0.000000 -0.000000 0.779738 T T T 
0.666667 0.333333 0.382398 T T T 
0.666667 0.333333 0.552687 T T T 
0.666667 0.333333 0.722975 T T T 
0.333333 0.666667 0.325635 T T T 
0.333333 0.666667 0.495924 T T T 
0.333333 0.666667 0.666213 T T T 
0.000000 0.000000 0.030905 T T T 
0.000000 0.000000 0.176737 T T T 
0.666667 0.333333 0.128126 T T T 
0.333333 0.666667 0.079515 T T T 
0.000000 -0.000000 0.871874 T T T 
0.666667 0.333333 0.969095 T T T 
0.333333 0.666667 0.920485 T T T 
