Layer                                   
   1.00000000000000     
     2.6004576726853683   -1.5013744842201957    0.0000000000000000
     0.0000000000000000    3.0027489684403914    0.0000000000000000
     0.0000000000000007   -0.0000000000000001   41.6259717818494650
   O    Mg   Al
    10     9     7
Selective dynamics
Direct
  0.0000000000000000  0.0000000000000000  0.2544526279892012   T   T   T
  0.3333330000000032  0.6666669999999968  0.3129740674759914   T   T   T
  0.0000000000000000  0.0000000000000000  0.4347012867754810   T   T   T
  0.3333330000000032  0.6666669999999968  0.4955742108701708   T   T   T
  0.0000000000000000  0.0000000000000000  0.6173710783403862   T   T   T
  0.3333330000000032  0.6666669999999968  0.6782316473812610   T   T   T
 -0.0000000000000000  0.0000000000000000  0.7976216021752186   T   T   T
  0.6666669999999968  0.3333330000000032  0.3738437878137529   T   T   T
  0.6666669999999968  0.3333330000000032  0.5564970624811942   T   T   T
  0.6666669999999968  0.3333330000000032  0.7391020826396818   T   T   T
  0.0000000000000000  0.0000000000000000  0.3433911406356601   T   T   T
  0.0000000000000000  0.0000000000000000  0.5260382014333417   T   T   T
  0.0000000000000000  0.0000000000000000  0.7086805775786771   T   T   T
  0.6666669999999968  0.3333330000000032  0.2825067229188322   T   T   T
  0.6666669999999968  0.3333330000000032  0.4651390748426456   T   T   T
  0.6666669999999968  0.3333330000000032  0.6478261030105950   T   T   T
  0.3333330000000032  0.6666669999999968  0.4042477890567581   T   T   T
  0.3333330000000032  0.6666669999999968  0.5869372689004074   T   T   T
  0.3333330000000032  0.6666669999999968  0.7695643072243411   T   T   T
  0.0000000000000000  0.0000000000000000  0.0260398976360142   T   T   T
  0.0000000000000000  0.0000000000000000  0.2126019711535476   T   T   T
  0.6666669999999968  0.3333330000000032  0.1514964654630879   T   T   T
  0.3333330000000032  0.6666669999999968  0.0869706909960393   T   T   T
  0.0000000000000000  0.0000000000000000  0.8394713721983473   T   T   T
  0.6666669999999968  0.3333330000000032  0.9651076177675492   T   T   T
  0.3333330000000032  0.6666669999999968  0.9005783452417935   T   T   T
 
  0.00000000E+00  0.00000000E+00  0.00000000E+00
  0.00000000E+00  0.00000000E+00  0.00000000E+00
  0.00000000E+00  0.00000000E+00  0.00000000E+00
  0.00000000E+00  0.00000000E+00  0.00000000E+00
  0.00000000E+00  0.00000000E+00  0.00000000E+00
  0.00000000E+00  0.00000000E+00  0.00000000E+00
  0.00000000E+00  0.00000000E+00  0.00000000E+00
  0.00000000E+00  0.00000000E+00  0.00000000E+00
  0.00000000E+00  0.00000000E+00  0.00000000E+00
  0.00000000E+00  0.00000000E+00  0.00000000E+00
  0.00000000E+00  0.00000000E+00  0.00000000E+00
  0.00000000E+00  0.00000000E+00  0.00000000E+00
  0.00000000E+00  0.00000000E+00  0.00000000E+00
  0.00000000E+00  0.00000000E+00  0.00000000E+00
  0.00000000E+00  0.00000000E+00  0.00000000E+00
  0.00000000E+00  0.00000000E+00  0.00000000E+00
  0.00000000E+00  0.00000000E+00  0.00000000E+00
  0.00000000E+00  0.00000000E+00  0.00000000E+00
  0.00000000E+00  0.00000000E+00  0.00000000E+00
  0.00000000E+00  0.00000000E+00  0.00000000E+00
  0.00000000E+00  0.00000000E+00  0.00000000E+00
  0.00000000E+00  0.00000000E+00  0.00000000E+00
  0.00000000E+00  0.00000000E+00  0.00000000E+00
  0.00000000E+00  0.00000000E+00  0.00000000E+00
  0.00000000E+00  0.00000000E+00  0.00000000E+00
  0.00000000E+00  0.00000000E+00  0.00000000E+00
