Layer                                   
   1.00000000000000     
     2.6004576726853683   -1.5013744842201957    0.0000000000000000
     0.0000000000000000    3.0027489684403914    0.0000000000000000
0.0000000000000007 -0.0000000000000001 41.6259717818494658
   O    Mg   Al
    10     9     7
Selective dynamics
Direct
  0.0000000000000000  0.0000000000000000  0.2524251114042698   T   T   T
  0.3333330000000032  0.6666669999999968  0.3113765671416027   T   T   T
  0.0000000000000000  0.0000000000000000  0.4340516688810352   T   T   T
  0.3333330000000032  0.6666669999999968  0.4954248444613844   T   T   T
  0.0000000000000000  0.0000000000000000  0.6180246551072217   T   T   T
  0.3333330000000032  0.6666669999999968  0.6793454260923565   T   T   T
  0.0000000000000000  0.0000000000000000  0.7996464100345472   T   T   T
  0.6666669999999968  0.3333330000000032  0.3727289471885677   T   T   T
  0.6666669999999968  0.3333330000000032  0.5566522932934300   T   T   T
  0.6666669999999968  0.3333330000000032  0.7406917113384367   T   T   T
  0.0000000000000000  0.0000000000000000  0.3420438560358585   T   T   T
  0.0000000000000000  0.0000000000000000  0.5260372285055767   T   T   T
  0.0000000000000000  0.0000000000000000  0.7100318922664643   T   T   T
  0.6666669999999968  0.3333330000000032  0.2806566081988638   T   T   T
  0.6666669999999968  0.3333330000000032  0.4647621921343275   T   T   T
  0.6666669999999968  0.3333330000000032  0.6486627685749237   T   T   T
  0.3333330000000032  0.6666669999999968  0.4034110892896270   T   T   T
  0.3333330000000032  0.6666669999999968  0.5873116181282072   T   T   T
  0.3333330000000032  0.6666669999999968  0.7714214166397361   T   T   T
  0.0000000000000000  0.0000000000000000  0.0260373006829152   T   T   T
  0.0000000000000000  0.0000000000000000  0.2102039011846160   T   T   T
  0.6666669999999968  0.3333330000000032  0.1502312111452405   T   T   T
  0.3333330000000032  0.6666669999999968  0.0870935917337895   T   T   T
  0.0000000000000000  0.0000000000000000  0.8418700634118180   T   T   T
  0.6666669999999968  0.3333330000000032  0.9649818474116607   T   T   T
  0.3333330000000032  0.6666669999999968  0.9018427797135132   T   T   T
 
  0.00000000E+00  0.00000000E+00  0.00000000E+00
  0.00000000E+00  0.00000000E+00  0.00000000E+00
  0.00000000E+00  0.00000000E+00  0.00000000E+00
  0.00000000E+00  0.00000000E+00  0.00000000E+00
  0.00000000E+00  0.00000000E+00  0.00000000E+00
  0.00000000E+00  0.00000000E+00  0.00000000E+00
  0.00000000E+00  0.00000000E+00  0.00000000E+00
  0.00000000E+00  0.00000000E+00  0.00000000E+00
  0.00000000E+00  0.00000000E+00  0.00000000E+00
  0.00000000E+00  0.00000000E+00  0.00000000E+00
  0.00000000E+00  0.00000000E+00  0.00000000E+00
  0.00000000E+00  0.00000000E+00  0.00000000E+00
  0.00000000E+00  0.00000000E+00  0.00000000E+00
  0.00000000E+00  0.00000000E+00  0.00000000E+00
  0.00000000E+00  0.00000000E+00  0.00000000E+00
  0.00000000E+00  0.00000000E+00  0.00000000E+00
  0.00000000E+00  0.00000000E+00  0.00000000E+00
  0.00000000E+00  0.00000000E+00  0.00000000E+00
  0.00000000E+00  0.00000000E+00  0.00000000E+00
  0.00000000E+00  0.00000000E+00  0.00000000E+00
  0.00000000E+00  0.00000000E+00  0.00000000E+00
  0.00000000E+00  0.00000000E+00  0.00000000E+00
  0.00000000E+00  0.00000000E+00  0.00000000E+00
  0.00000000E+00  0.00000000E+00  0.00000000E+00
  0.00000000E+00  0.00000000E+00  0.00000000E+00
  0.00000000E+00  0.00000000E+00  0.00000000E+00
