Layer (20)                              
   1.00000000000000     
     2.5844879337095619   -1.4921433729288078    0.0000000000000000
    -0.0000000000000000    2.9842867458576157    0.0000000000000001
     0.0000000000000031    0.0000000000000058   79.7630318285646354
     Al
        7
Selective dynamics
Direct
  0.0000000000000000  0.0000000000000000  0.2496649446285792   T   T   T
  0.0000000000000000  0.0000000000000000  0.3337229372119821   T   T   T
  0.0000000000000000  0.0000000000000000  0.4173102818967209   T   T   T
  0.6666669999999968  0.3333330000000032  0.3058778124307058   T   T   T
  0.6666669999999968  0.3333330000000032  0.3896004249228083   T   T   T
  0.3333330000000032  0.6666669999999968  0.2780227948522505   T   T   T
  0.3333330000000032  0.6666669999999968  0.3616242022162929   T   T   T
 
  0.00000000E+00  0.00000000E+00  0.00000000E+00
  0.00000000E+00  0.00000000E+00  0.00000000E+00
  0.00000000E+00  0.00000000E+00  0.00000000E+00
  0.00000000E+00  0.00000000E+00  0.00000000E+00
  0.00000000E+00  0.00000000E+00  0.00000000E+00
  0.00000000E+00  0.00000000E+00  0.00000000E+00
  0.00000000E+00  0.00000000E+00  0.00000000E+00
  0.00000000E+00  0.00000000E+00  0.00000000E+00
  0.00000000E+00  0.00000000E+00  0.00000000E+00
  0.00000000E+00  0.00000000E+00  0.00000000E+00
  0.00000000E+00  0.00000000E+00  0.00000000E+00
  0.00000000E+00  0.00000000E+00  0.00000000E+00
  0.00000000E+00  0.00000000E+00  0.00000000E+00
  0.00000000E+00  0.00000000E+00  0.00000000E+00
  0.00000000E+00  0.00000000E+00  0.00000000E+00
  0.00000000E+00  0.00000000E+00  0.00000000E+00
  0.00000000E+00  0.00000000E+00  0.00000000E+00
  0.00000000E+00  0.00000000E+00  0.00000000E+00
  0.00000000E+00  0.00000000E+00  0.00000000E+00
  0.00000000E+00  0.00000000E+00  0.00000000E+00
  0.00000000E+00  0.00000000E+00  0.00000000E+00
  0.00000000E+00  0.00000000E+00  0.00000000E+00
  0.00000000E+00  0.00000000E+00  0.00000000E+00
  0.00000000E+00  0.00000000E+00  0.00000000E+00
  0.00000000E+00  0.00000000E+00  0.00000000E+00
  0.00000000E+00  0.00000000E+00  0.00000000E+00
