Layer                                   
   1.00000000000000     
     2.5753034101725314   -1.4868516770802194    0.0000000000000000
     0.0000000000000000    2.9737033541604387    0.0000000000000000
    -0.0000000000000009    0.0000000000000000   44.0763929445798439
   O    Mg   Al
    11    10     7
Selective dynamics
Direct
  0.3333330000000032  0.6666669999999968  0.2368358369515344   T   T   T
  0.0000000000000000 -0.0000000000000000  0.3522984249259192   T   T   T
  0.3333330000000032  0.6666669999999968  0.4097377292843635   T   T   T
  0.0000000000000000  0.0000000000000000  0.5245411868195120   T   T   T
  0.3333330000000032  0.6666669999999968  0.5819282385724889   T   T   T
 -0.0000000000000000  0.0000000000000000  0.6967798381322587   T   T   T
  0.3333330000000032  0.6666669999999968  0.7541897765292213   T   T   T
  0.6666669999999968  0.3333330000000032  0.2948909824058767   T   T   T
  0.6666669999999968  0.3333330000000032  0.4671540855912458   T   T   T
  0.6666669999999968  0.3333330000000032  0.6393430380385489   T   T   T
  0.6666669999999968  0.3333330000000032  0.8122454323702475   T   T   T
 -0.0000000000000000 -0.0000000000000000  0.2662281823663145   T   T   T
 -0.0000000000000000 -0.0000000000000000  0.4384380396611355   T   T   T
 -0.0000000000000000 -0.0000000000000000  0.6106433785240608   T   T   T
 -0.0000000000000000 -0.0000000000000000  0.7828531373760270   T   T   T
  0.6666669999999968  0.3333330000000032  0.3810061947845551   T   T   T
  0.6666669999999968  0.3333330000000032  0.5532311154688271   T   T   T
  0.6666669999999968  0.3333330000000032  0.7254859491808385   T   T   T
  0.3333330000000032  0.6666669999999968  0.3235999789206807   T   T   T
  0.3333330000000032  0.6666669999999968  0.4958489890346257   T   T   T
  0.3333330000000032  0.6666669999999968  0.6680793158804681   T   T   T
 -0.0000000000000000 -0.0000000000000000  0.0245422583034411   T   T   T
 -0.0000000000000000 -0.0000000000000000  0.2027195030836947   T   T   T
  0.6666669999999968  0.3333330000000032  0.1467954907072591   T   T   T
  0.3333330000000032  0.6666669999999968  0.0843054828884890   T   T   T
 -0.0000000000000000 -0.0000000000000000  0.8463642372421821   T   T   T
  0.6666669999999968  0.3333330000000032  0.9647772388402907   T   T   T
  0.3333330000000032  0.6666669999999968  0.9022879381159078   T   T   T
 
  0.00000000E+00  0.00000000E+00  0.00000000E+00
  0.00000000E+00  0.00000000E+00  0.00000000E+00
  0.00000000E+00  0.00000000E+00  0.00000000E+00
  0.00000000E+00  0.00000000E+00  0.00000000E+00
  0.00000000E+00  0.00000000E+00  0.00000000E+00
  0.00000000E+00  0.00000000E+00  0.00000000E+00
  0.00000000E+00  0.00000000E+00  0.00000000E+00
  0.00000000E+00  0.00000000E+00  0.00000000E+00
  0.00000000E+00  0.00000000E+00  0.00000000E+00
  0.00000000E+00  0.00000000E+00  0.00000000E+00
  0.00000000E+00  0.00000000E+00  0.00000000E+00
  0.00000000E+00  0.00000000E+00  0.00000000E+00
  0.00000000E+00  0.00000000E+00  0.00000000E+00
  0.00000000E+00  0.00000000E+00  0.00000000E+00
  0.00000000E+00  0.00000000E+00  0.00000000E+00
  0.00000000E+00  0.00000000E+00  0.00000000E+00
  0.00000000E+00  0.00000000E+00  0.00000000E+00
  0.00000000E+00  0.00000000E+00  0.00000000E+00
  0.00000000E+00  0.00000000E+00  0.00000000E+00
  0.00000000E+00  0.00000000E+00  0.00000000E+00
  0.00000000E+00  0.00000000E+00  0.00000000E+00
  0.00000000E+00  0.00000000E+00  0.00000000E+00
  0.00000000E+00  0.00000000E+00  0.00000000E+00
  0.00000000E+00  0.00000000E+00  0.00000000E+00
  0.00000000E+00  0.00000000E+00  0.00000000E+00
  0.00000000E+00  0.00000000E+00  0.00000000E+00
  0.00000000E+00  0.00000000E+00  0.00000000E+00
  0.00000000E+00  0.00000000E+00  0.00000000E+00
