Layer                                   
   1.00000000000000     
     2.5753034101725314   -1.4868516770802194    0.0000000000000000
     0.0000000000000000    2.9737033541604387    0.0000000000000000
-0.0000000000000009 0.0000000000000000 44.0763929445798416
   O    Mg   Al
    11    10     7
Selective dynamics
Direct
  0.3333330000000032  0.6666669999999968  0.2335199348819805   T   T   T
  0.0000000000000000  0.0000000000000000  0.3503201716295461   T   T   T
  0.3333330000000032  0.6666669999999968  0.4083751656171123   T   T   T
  0.0000000000000000  0.0000000000000000  0.5245411868195120   T   T   T
  0.3333330000000032  0.6666669999999968  0.5826149740410596   T   T   T
 -0.0000000000000000 -0.0000000000000000  0.6987580914286318   T   T   T
  0.3333330000000032  0.6666669999999968  0.7568322914933396   T   T   T
  0.6666669999999968  0.3333330000000032  0.2922484674417577   T   T   T
  0.6666669999999968  0.3333330000000032  0.4664673501226744   T   T   T
  0.6666669999999968  0.3333330000000032  0.6407056017058004   T   T   T
  0.6666669999999968  0.3333330000000032  0.8155613344398015   T   T   T
  0.0000000000000000  0.0000000000000000  0.2632620155165792   T   T   T
  0.0000000000000000  0.0000000000000000  0.4374254099799777   T   T   T
  0.0000000000000000  0.0000000000000000  0.6116560082052185   T   T   T
  0.0000000000000000  0.0000000000000000  0.7858193042257627   T   T   T
  0.6666669999999968  0.3333330000000032  0.3793597728204710   T   T   T
  0.6666669999999968  0.3333330000000032  0.5535776976755681   T   T   T
  0.6666669999999968  0.3333330000000032  0.7277810943567714   T   T   T
  0.3333330000000032  0.6666669999999968  0.3213048337447477   T   T   T
  0.3333330000000032  0.6666669999999968  0.4955024068278848   T   T   T
  0.3333330000000032  0.6666669999999968  0.6697257378445526   T   T   T
  0.0000000000000000  0.0000000000000000  0.0245422583034411   T   T   T
  0.0000000000000000  0.0000000000000000  0.1990445628706554   T   T   T
  0.6666669999999968  0.3333330000000032  0.1436718773179552   T   T   T
  0.3333330000000032  0.6666669999999968  0.0835811934100432   T   T   T
  0.0000000000000000  0.0000000000000000  0.8500391774552212   T   T   T
  0.6666669999999968  0.3333330000000032  0.9655015283187371   T   T   T
  0.3333330000000032  0.6666669999999968  0.9054115515052118   T   T   T
 
  0.00000000E+00  0.00000000E+00  0.00000000E+00
  0.00000000E+00  0.00000000E+00  0.00000000E+00
  0.00000000E+00  0.00000000E+00  0.00000000E+00
  0.00000000E+00  0.00000000E+00  0.00000000E+00
  0.00000000E+00  0.00000000E+00  0.00000000E+00
  0.00000000E+00  0.00000000E+00  0.00000000E+00
  0.00000000E+00  0.00000000E+00  0.00000000E+00
  0.00000000E+00  0.00000000E+00  0.00000000E+00
  0.00000000E+00  0.00000000E+00  0.00000000E+00
  0.00000000E+00  0.00000000E+00  0.00000000E+00
  0.00000000E+00  0.00000000E+00  0.00000000E+00
  0.00000000E+00  0.00000000E+00  0.00000000E+00
  0.00000000E+00  0.00000000E+00  0.00000000E+00
  0.00000000E+00  0.00000000E+00  0.00000000E+00
  0.00000000E+00  0.00000000E+00  0.00000000E+00
  0.00000000E+00  0.00000000E+00  0.00000000E+00
  0.00000000E+00  0.00000000E+00  0.00000000E+00
  0.00000000E+00  0.00000000E+00  0.00000000E+00
  0.00000000E+00  0.00000000E+00  0.00000000E+00
  0.00000000E+00  0.00000000E+00  0.00000000E+00
  0.00000000E+00  0.00000000E+00  0.00000000E+00
  0.00000000E+00  0.00000000E+00  0.00000000E+00
  0.00000000E+00  0.00000000E+00  0.00000000E+00
  0.00000000E+00  0.00000000E+00  0.00000000E+00
  0.00000000E+00  0.00000000E+00  0.00000000E+00
  0.00000000E+00  0.00000000E+00  0.00000000E+00
  0.00000000E+00  0.00000000E+00  0.00000000E+00
  0.00000000E+00  0.00000000E+00  0.00000000E+00
