Layer26                                 
   1.00000000000000     
     2.5924236676563148   -1.4967362681920888    0.0000000000000000
     0.0000000000000000    2.9934725363841777    0.0000000000000000
     0.0000000000000003    0.0000000000000000   71.7716350437347046
   O    Mg   Al
    11    10     7
Selective dynamics
Direct
  0.3333330000000032  0.6666669999999968  0.4320782445774985   T   T   T
 -0.0000000000000000 -0.0000000000000000  0.5013921810233067   T   T   T
  0.3333330000000032  0.6666669999999968  0.5357414744710361   T   T   T
 -0.0000000000000000 -0.0000000000000000  0.6044184682687224   T   T   T
  0.3333330000000032  0.6666669999999968  0.6387317073180376   T   T   T
 -0.0000000000000000 -0.0000000000000000  0.7072699038825373   T   T   T
  0.3333330000000032  0.6666669999999968  0.7412512852814497   T   T   T
  0.6666669999999968  0.3333330000000032  0.4670339789320535   T   T   T
  0.6666669999999968  0.3333330000000032  0.5700780336159500   T   T   T
  0.6666669999999968  0.3333330000000032  0.6730152251511272   T   T   T
  0.6666669999999968  0.3333330000000032  0.7736347643839058   T   T   T
 -0.0000000000000000 -0.0000000000000000  0.4509825454093732   T   T   T
 -0.0000000000000000 -0.0000000000000000  0.5539742736732813   T   T   T
 -0.0000000000000000 -0.0000000000000000  0.6569439126504549   T   T   T
 -0.0000000000000000 -0.0000000000000000  0.7605299518931198   T   T   T
  0.6666669999999968  0.3333330000000032  0.5196327084445009   T   T   T
  0.6666669999999968  0.3333330000000032  0.6226405628577726   T   T   T
  0.6666669999999968  0.3333330000000032  0.7255681710434011   T   T   T
  0.3333330000000032  0.6666669999999968  0.4852924606723750   T   T   T
  0.3333330000000032  0.6666669999999968  0.5883127467277300   T   T   T
  0.3333330000000032  0.6666669999999968  0.6912305984456022   T   T   T
 -0.0000000000000000 -0.0000000000000000  0.2272590359167709   T   T   T
 -0.0000000000000000 -0.0000000000000000  0.3206402502222176   T   T   T
 -0.0000000000000000 -0.0000000000000000  0.4128795893352019   T   T   T
  0.6666669999999968  0.3333330000000032  0.2895881772613086   T   T   T
  0.6666669999999968  0.3333330000000032  0.3831322053336745   T   T   T
  0.3333330000000032  0.6666669999999968  0.2586720846688170   T   T   T
  0.3333330000000032  0.6666669999999968  0.3518684585387877   T   T   T
 
  0.00000000E+00  0.00000000E+00  0.00000000E+00
  0.00000000E+00  0.00000000E+00  0.00000000E+00
  0.00000000E+00  0.00000000E+00  0.00000000E+00
  0.00000000E+00  0.00000000E+00  0.00000000E+00
  0.00000000E+00  0.00000000E+00  0.00000000E+00
  0.00000000E+00  0.00000000E+00  0.00000000E+00
  0.00000000E+00  0.00000000E+00  0.00000000E+00
  0.00000000E+00  0.00000000E+00  0.00000000E+00
  0.00000000E+00  0.00000000E+00  0.00000000E+00
  0.00000000E+00  0.00000000E+00  0.00000000E+00
  0.00000000E+00  0.00000000E+00  0.00000000E+00
  0.00000000E+00  0.00000000E+00  0.00000000E+00
  0.00000000E+00  0.00000000E+00  0.00000000E+00
  0.00000000E+00  0.00000000E+00  0.00000000E+00
  0.00000000E+00  0.00000000E+00  0.00000000E+00
  0.00000000E+00  0.00000000E+00  0.00000000E+00
  0.00000000E+00  0.00000000E+00  0.00000000E+00
  0.00000000E+00  0.00000000E+00  0.00000000E+00
  0.00000000E+00  0.00000000E+00  0.00000000E+00
  0.00000000E+00  0.00000000E+00  0.00000000E+00
  0.00000000E+00  0.00000000E+00  0.00000000E+00
  0.00000000E+00  0.00000000E+00  0.00000000E+00
  0.00000000E+00  0.00000000E+00  0.00000000E+00
  0.00000000E+00  0.00000000E+00  0.00000000E+00
  0.00000000E+00  0.00000000E+00  0.00000000E+00
  0.00000000E+00  0.00000000E+00  0.00000000E+00
  0.00000000E+00  0.00000000E+00  0.00000000E+00
  0.00000000E+00  0.00000000E+00  0.00000000E+00
