Layer                                   
   1.00000000000000     
     2.5922013181189856   -1.4966076734688392    0.0000000000000000
     0.0000000000000000    2.9932153469376783    0.0000000000000000
    -0.0000000000000002    0.0000000000000000   45.8428938024349577
   O    Mg   Al
    10    11     7
Selective dynamics
Direct
 -0.0000000000000000  0.0000000000000000  0.2766056752780042   T   T   T
  0.3333330000000032  0.6666669999999968  0.3316669467790834   T   T   T
 -0.0000000000000000 -0.0000000000000000  0.4417964079457452   T   T   T
  0.3333330000000032  0.6666669999999968  0.4968280542823713   T   T   T
 -0.0000000000000000 -0.0000000000000000  0.6068407830501741   T   T   T
  0.3333330000000032  0.6666669999999968  0.6619089554693859   T   T   T
  0.0000000000000000 -0.0000000000000000  0.7720395168745089   T   T   T
  0.6666669999999968  0.3333330000000032  0.3867312806100426   T   T   T
  0.6666669999999968  0.3333330000000032  0.5518074933311786   T   T   T
  0.6666669999999968  0.3333330000000032  0.7169762731752167   T   T   T
 -0.0000000000000000 -0.0000000000000000  0.3591944287561641   T   T   T
 -0.0000000000000000 -0.0000000000000000  0.5243182338375902   T   T   T
 -0.0000000000000000  0.0000000000000000  0.6894468417404958   T   T   T
  0.6666669999999968  0.3333330000000032  0.3041458463966242   T   T   T
  0.6666669999999968  0.3333330000000032  0.4693272702335110   T   T   T
  0.6666669999999968  0.3333330000000032  0.6343657122604717   T   T   T
  0.6666669999999968  0.3333330000000032  0.8005194125798125   T   T   T
  0.3333330000000032  0.6666669999999968  0.2481259214638716   T   T   T
  0.3333330000000032  0.6666669999999968  0.4142736639852383   T   T   T
  0.3333330000000032  0.6666669999999968  0.5793098676084467   T   T   T
  0.3333330000000032  0.6666669999999968  0.7444974225996481   T   T   T
 -0.0000000000000000 -0.0000000000000000  0.0243195811998618   T   T   T
 -0.0000000000000000 -0.0000000000000000  0.1893137619679613   T   T   T
  0.6666669999999968  0.3333330000000032  0.1328599310791135   T   T   T
  0.3333330000000032  0.6666669999999968  0.0783277050198667   T   T   T
 -0.0000000000000000 -0.0000000000000000  0.8593324953570497   T   T   T
  0.6666669999999968  0.3333330000000032  0.9703105639073967   T   T   T
  0.3333330000000032  0.6666669999999968  0.9157809532111940   T   T   T
 
  0.00000000E+00  0.00000000E+00  0.00000000E+00
  0.00000000E+00  0.00000000E+00  0.00000000E+00
  0.00000000E+00  0.00000000E+00  0.00000000E+00
  0.00000000E+00  0.00000000E+00  0.00000000E+00
  0.00000000E+00  0.00000000E+00  0.00000000E+00
  0.00000000E+00  0.00000000E+00  0.00000000E+00
  0.00000000E+00  0.00000000E+00  0.00000000E+00
  0.00000000E+00  0.00000000E+00  0.00000000E+00
  0.00000000E+00  0.00000000E+00  0.00000000E+00
  0.00000000E+00  0.00000000E+00  0.00000000E+00
  0.00000000E+00  0.00000000E+00  0.00000000E+00
  0.00000000E+00  0.00000000E+00  0.00000000E+00
  0.00000000E+00  0.00000000E+00  0.00000000E+00
  0.00000000E+00  0.00000000E+00  0.00000000E+00
  0.00000000E+00  0.00000000E+00  0.00000000E+00
  0.00000000E+00  0.00000000E+00  0.00000000E+00
  0.00000000E+00  0.00000000E+00  0.00000000E+00
  0.00000000E+00  0.00000000E+00  0.00000000E+00
  0.00000000E+00  0.00000000E+00  0.00000000E+00
  0.00000000E+00  0.00000000E+00  0.00000000E+00
  0.00000000E+00  0.00000000E+00  0.00000000E+00
  0.00000000E+00  0.00000000E+00  0.00000000E+00
  0.00000000E+00  0.00000000E+00  0.00000000E+00
  0.00000000E+00  0.00000000E+00  0.00000000E+00
  0.00000000E+00  0.00000000E+00  0.00000000E+00
  0.00000000E+00  0.00000000E+00  0.00000000E+00
  0.00000000E+00  0.00000000E+00  0.00000000E+00
  0.00000000E+00  0.00000000E+00  0.00000000E+00
