Layer                                   
   1.00000000000000     
     2.5922013181189856   -1.4966076734688392    0.0000000000000000
     0.0000000000000000    2.9932153469376783    0.0000000000000000
-0.0000000000000002 0.0000000000000000 45.8428938024349605
   O    Mg   Al
    10    11     7
Selective dynamics
Direct
  0.0000000000000000  0.0000000000000000  0.2746794447071322   T   T   T
  0.3333330000000032  0.6666669999999968  0.3301538883701694   T   T   T
  0.0000000000000000  0.0000000000000000  0.4411372560375305   T   T   T
  0.3333330000000032  0.6666669999999968  0.4966064040847041   T   T   T
  0.0000000000000000  0.0000000000000000  0.6074999349583937   T   T   T
  0.3333330000000032  0.6666669999999968  0.6630040605046587   T   T   T
  0.0000000000000000  0.0000000000000000  0.7739657474453803   T   T   T
  0.6666669999999968  0.3333330000000032  0.3856361755747683   T   T   T
  0.6666669999999968  0.3333330000000032  0.5520291435288464   T   T   T
  0.6666669999999968  0.3333330000000032  0.7184893315841318   T   T   T
  0.0000000000000000  0.0000000000000000  0.3579203389572198   T   T   T
  0.0000000000000000  0.0000000000000000  0.5243182338375902   T   T   T
  0.0000000000000000  0.0000000000000000  0.6907209315394383   T   T   T
  0.6666669999999968  0.3333330000000032  0.3024319909315611   T   T   T
  0.6666669999999968  0.3333330000000032  0.4688755583205638   T   T   T
  0.6666669999999968  0.3333330000000032  0.6352330084305515   T   T   T
  0.6666669999999968  0.3333330000000032  0.8026516185185252   T   T   T
  0.3333330000000032  0.6666669999999968  0.2459937155251626   T   T   T
  0.3333330000000032  0.6666669999999968  0.4134063678151569   T   T   T
  0.3333330000000032  0.6666669999999968  0.5797615795213951   T   T   T
  0.3333330000000032  0.6666669999999968  0.7462112780647107   T   T   T
  0.0000000000000000  0.0000000000000000  0.0243195811998616   T   T   T
  0.0000000000000000  0.0000000000000000  0.1876810419105021   T   T   T
  0.6666669999999968  0.3333330000000032  0.1317228570730947   T   T   T
  0.3333330000000032  0.6666669999999968  0.0776348823056892   T   T   T
  0.0000000000000000  0.0000000000000000  0.8609652154145083   T   T   T
  0.6666669999999968  0.3333330000000032  0.9710033866215727   T   T   T
  0.3333330000000032  0.6666669999999968  0.9169180272172166   T   T   T
 
  0.00000000E+00  0.00000000E+00  0.00000000E+00
  0.00000000E+00  0.00000000E+00  0.00000000E+00
  0.00000000E+00  0.00000000E+00  0.00000000E+00
  0.00000000E+00  0.00000000E+00  0.00000000E+00
  0.00000000E+00  0.00000000E+00  0.00000000E+00
  0.00000000E+00  0.00000000E+00  0.00000000E+00
  0.00000000E+00  0.00000000E+00  0.00000000E+00
  0.00000000E+00  0.00000000E+00  0.00000000E+00
  0.00000000E+00  0.00000000E+00  0.00000000E+00
  0.00000000E+00  0.00000000E+00  0.00000000E+00
  0.00000000E+00  0.00000000E+00  0.00000000E+00
  0.00000000E+00  0.00000000E+00  0.00000000E+00
  0.00000000E+00  0.00000000E+00  0.00000000E+00
  0.00000000E+00  0.00000000E+00  0.00000000E+00
  0.00000000E+00  0.00000000E+00  0.00000000E+00
  0.00000000E+00  0.00000000E+00  0.00000000E+00
  0.00000000E+00  0.00000000E+00  0.00000000E+00
  0.00000000E+00  0.00000000E+00  0.00000000E+00
  0.00000000E+00  0.00000000E+00  0.00000000E+00
  0.00000000E+00  0.00000000E+00  0.00000000E+00
  0.00000000E+00  0.00000000E+00  0.00000000E+00
  0.00000000E+00  0.00000000E+00  0.00000000E+00
  0.00000000E+00  0.00000000E+00  0.00000000E+00
  0.00000000E+00  0.00000000E+00  0.00000000E+00
  0.00000000E+00  0.00000000E+00  0.00000000E+00
  0.00000000E+00  0.00000000E+00  0.00000000E+00
  0.00000000E+00  0.00000000E+00  0.00000000E+00
  0.00000000E+00  0.00000000E+00  0.00000000E+00
