MgO25                                   
   1.00000000000000     
     2.1244360000000002   -2.1244350000000001    0.0000000000000000
     0.0000000000000000    2.1244360000000002   -2.1244360000000002
    25.6557379999999995   25.6557379999999995   25.6557379999999995
   O    Mg
    12    13
Selective dynamics
Direct
  0.0000000000000000 -0.0000000000000000  0.1049488805358077   T   T   T
  0.3333330000000032  0.6666669999999968  0.1604491111120962   T   T   T
  0.0000000000000000  0.0000000000000000  0.2709199999999967   F   F   F
  0.3333330000000032  0.6666669999999968  0.3261240000000001   F   F   F
  0.0000000000000000  0.0000000000000000  0.4365310000000022   F   F   F
  0.3333330000000032  0.6666669999999968  0.4917349999999985   F   F   F
  0.0000000000000000  0.0000000000000000  0.6021420000000006   F   F   F
  0.3333330000000032  0.6666669999999968  0.6573459999999969   F   F   F
  0.6666669999999968  0.3333330000000032  0.0482661397686264   T   T   T
  0.6666669999999968  0.3333330000000032  0.2156870890764727   T   T   T
  0.6666669999999968  0.3333330000000032  0.3813269999999989   F   F   F
  0.6666669999999968  0.3333330000000032  0.5469379999999973   F   F   F
 -0.0000000000000000 -0.0000000000000000  0.0275596044943981   T   T   T
  0.0000000000000000 -0.0000000000000000  0.1881516773277841   T   T   T
  0.0000000000000000  0.0000000000000000  0.3537260000000018   F   F   F
  0.0000000000000000  0.0000000000000000  0.5193370000000002   F   F   F
  0.0000000000000000  0.0000000000000000  0.6849479999999986   F   F   F
  0.6666669999999968  0.3333330000000032  0.1330966580117861   T   T   T
  0.6666669999999968  0.3333330000000032  0.2985219999999984   F   F   F
  0.6666669999999968  0.3333330000000032  0.4641329999999968   F   F   F
  0.6666669999999968  0.3333330000000032  0.6297440000000023   F   F   F
  0.3333330000000032  0.6666669999999968  0.0787587135745083   T   T   T
  0.3333330000000032  0.6666669999999968  0.2433281993107738   T   T   T
  0.3333330000000032  0.6666669999999968  0.4089290000000005   F   F   F
  0.3333330000000032  0.6666669999999968  0.5745399999999989   F   F   F
 
  0.00000000E+00  0.00000000E+00  0.00000000E+00
  0.00000000E+00  0.00000000E+00  0.00000000E+00
  0.00000000E+00  0.00000000E+00  0.00000000E+00
  0.00000000E+00  0.00000000E+00  0.00000000E+00
  0.00000000E+00  0.00000000E+00  0.00000000E+00
  0.00000000E+00  0.00000000E+00  0.00000000E+00
  0.00000000E+00  0.00000000E+00  0.00000000E+00
  0.00000000E+00  0.00000000E+00  0.00000000E+00
  0.00000000E+00  0.00000000E+00  0.00000000E+00
  0.00000000E+00  0.00000000E+00  0.00000000E+00
  0.00000000E+00  0.00000000E+00  0.00000000E+00
  0.00000000E+00  0.00000000E+00  0.00000000E+00
  0.00000000E+00  0.00000000E+00  0.00000000E+00
  0.00000000E+00  0.00000000E+00  0.00000000E+00
  0.00000000E+00  0.00000000E+00  0.00000000E+00
  0.00000000E+00  0.00000000E+00  0.00000000E+00
  0.00000000E+00  0.00000000E+00  0.00000000E+00
  0.00000000E+00  0.00000000E+00  0.00000000E+00
  0.00000000E+00  0.00000000E+00  0.00000000E+00
  0.00000000E+00  0.00000000E+00  0.00000000E+00
  0.00000000E+00  0.00000000E+00  0.00000000E+00
  0.00000000E+00  0.00000000E+00  0.00000000E+00
  0.00000000E+00  0.00000000E+00  0.00000000E+00
  0.00000000E+00  0.00000000E+00  0.00000000E+00
  0.00000000E+00  0.00000000E+00  0.00000000E+00
