MgO25 
1.0 
2.124436 -2.124435 -0.000000 
0.000000 2.124436 -2.124436 
25.655738 25.655738 25.655738 
O Mg 
12 13 
Selective Dynamics
Direct 
1.000000 0.000000 0.105309 T T T 
0.333333 0.666667 0.160513 T T T 
1.000000 0.000000 0.270920 F F F 
0.333333 0.666667 0.326124 F F F 
1.000000 -0.000000 0.436531 F F F 
0.333333 0.666667 0.491735 F F F 
1.000000 -0.000000 0.602142 F F F 
0.333333 0.666667 0.657346 F F F 
0.666667 0.333333 0.050106 T T T 
0.666667 0.333333 0.215717 T T T 
0.666667 0.333333 0.381327 F F F 
0.666667 0.333333 0.546938 F F F 
0.000000 -0.000000 0.022504 T T T 
0.000000 -0.000000 0.188115 T T T 
0.000000 -0.000000 0.353726 F F F 
-0.000000 -0.000000 0.519337 F F F 
0.000000 -0.000000 0.684948 F F F 
0.666667 0.333333 0.132911 T T T 
0.666667 0.333333 0.298522 F F F 
0.666667 0.333333 0.464133 F F F 
0.666667 0.333333 0.629744 F F F 
0.333333 0.666667 0.077707 T T T 
0.333333 0.666667 0.243318 T T T 
0.333333 0.666667 0.408929 F F F 
0.333333 0.666667 0.574540 F F F 
