Layer                                   
   1.00000000000000     
     2.5753034101725314   -1.4868516770802194    0.0000000000000000
     0.0000000000000000    2.9737033541604387    0.0000000000000000
-0.0000000000000009 0.0000000000000000 43.6682781950929913
   O    Mg   Al
    11    10     7
Selective dynamics
Direct
  0.3333330000000032  0.6666669999999968  0.2315033333692240   T   T   T
  0.0000000000000000  0.0000000000000000  0.3490968246866600   T   T   T
  0.3333330000000032  0.6666669999999968  0.4076260011212139   T   T   T
 -0.0000000000000000  0.0000000000000000  0.5245411868195120   T   T   T
  0.3333330000000032  0.6666669999999968  0.5829649280458685   T   T   T
 -0.0000000000000000  0.0000000000000000  0.6999814383715176   T   T   T
  0.3333330000000032  0.6666669999999968  0.7584769238356900   T   T   T
  0.6666669999999968  0.3333330000000032  0.2906038350994078   T   T   T
  0.6666669999999968  0.3333330000000032  0.4661173961178659   T   T   T
  0.6666669999999968  0.3333330000000032  0.6414547662016988   T   T   T
  0.6666669999999968  0.3333330000000032  0.8175779359525580   T   T   T
  0.0000000000000000  0.0000000000000000  0.2614663622006492   T   T   T
  0.0000000000000000  0.0000000000000000  0.4368760755487334   T   T   T
  0.0000000000000000  0.0000000000000000  0.6122053426364625   T   T   T
  0.0000000000000000  0.0000000000000000  0.7876149575416931   T   T   T
  0.6666669999999968  0.3333330000000032  0.3783806750874841   T   T   T
  0.6666669999999968  0.3333330000000032  0.5537497849367607   T   T   T
  0.6666669999999968  0.3333330000000032  0.7292228037832261   T   T   T
  0.3333330000000032  0.6666669999999968  0.3198631243182928   T   T   T
  0.3333330000000032  0.6666669999999968  0.4953303195666923   T   T   T
  0.3333330000000032  0.6666669999999968  0.6707048355775390   T   T   T
  0.0000000000000000  0.0000000000000000  0.0245422583034411   T   T   T
  0.0000000000000000  0.0000000000000000  0.1968181787223639   T   T   T
  0.6666669999999968  0.3333330000000032  0.1418774309474321   T   T   T
  0.3333330000000032  0.6666669999999968  0.0829910787676190   T   T   T
  0.0000000000000000  0.0000000000000000  0.8522655616035126   T   T   T
  0.6666669999999968  0.3333330000000032  0.9660916429611612   T   T   T
  0.3333330000000032  0.6666669999999968  0.9072059978757349   T   T   T
 
  0.00000000E+00  0.00000000E+00  0.00000000E+00
  0.00000000E+00  0.00000000E+00  0.00000000E+00
  0.00000000E+00  0.00000000E+00  0.00000000E+00
  0.00000000E+00  0.00000000E+00  0.00000000E+00
  0.00000000E+00  0.00000000E+00  0.00000000E+00
  0.00000000E+00  0.00000000E+00  0.00000000E+00
  0.00000000E+00  0.00000000E+00  0.00000000E+00
  0.00000000E+00  0.00000000E+00  0.00000000E+00
  0.00000000E+00  0.00000000E+00  0.00000000E+00
  0.00000000E+00  0.00000000E+00  0.00000000E+00
  0.00000000E+00  0.00000000E+00  0.00000000E+00
  0.00000000E+00  0.00000000E+00  0.00000000E+00
  0.00000000E+00  0.00000000E+00  0.00000000E+00
  0.00000000E+00  0.00000000E+00  0.00000000E+00
  0.00000000E+00  0.00000000E+00  0.00000000E+00
  0.00000000E+00  0.00000000E+00  0.00000000E+00
  0.00000000E+00  0.00000000E+00  0.00000000E+00
  0.00000000E+00  0.00000000E+00  0.00000000E+00
  0.00000000E+00  0.00000000E+00  0.00000000E+00
  0.00000000E+00  0.00000000E+00  0.00000000E+00
  0.00000000E+00  0.00000000E+00  0.00000000E+00
  0.00000000E+00  0.00000000E+00  0.00000000E+00
  0.00000000E+00  0.00000000E+00  0.00000000E+00
  0.00000000E+00  0.00000000E+00  0.00000000E+00
  0.00000000E+00  0.00000000E+00  0.00000000E+00
  0.00000000E+00  0.00000000E+00  0.00000000E+00
  0.00000000E+00  0.00000000E+00  0.00000000E+00
  0.00000000E+00  0.00000000E+00  0.00000000E+00
